##TITLE=Benzene, 1-methoxy-3-methyl-
##JCAMP-DX=4.24
##DATA TYPE=MASS SPECTRUM
##ORIGIN=Japan AIST/NIMC Database- Spectrum MS-NW- 889
##OWNER=NIST Mass Spectrometry Data Center
Collection (C) 2014 copyright by the U.S. Secretary of Commerce
on behalf of the United States of America. All rights reserved.
##CAS REGISTRY NO=100-84-5
##$NIST MASS SPEC NO=228729
##MOLFORM=C8 H10 O
##MW=122
##$NIST SOURCE=MSDC
##XUNITS=M/Z
##YUNITS=RELATIVE INTENSITY
##XFACTOR=1
##YFACTOR=1
##FIRSTX=14
##LASTX=124
##FIRSTY=10
##MAXX=124
##MINX=14
##MAXY=9999
##MINY=10
##NPOINTS=65
##PEAK TABLE=(XY..XY)
14,10 15,229 18,10 26,99
27,659 28,209 29,80 30,10
31,10 32,10 37,129 38,409
39,1859 40,149 41,209 42,20
43,60 44,10 45,10 49,40
50,639 51,1289 52,679 53,729
54,50 55,50 60,30 61,149
62,279 63,739 64,229 65,949
66,90 67,30 68,10 73,20
74,119 75,80 76,80 77,3579
78,909 79,3129 80,199 81,10
85,20 86,50 87,30 89,279
90,209 91,5029 92,2369 93,689
94,50 103,10 104,10 105,60
106,60 107,2079 108,169 119,20
120,20 121,1519 122,9999 123,879
124,50
##END=
