##TITLE=Benzenamine, 4,4'-oxybis-
##JCAMP-DX=4.24
##DATA TYPE=MASS SPECTRUM
##ORIGIN=Japan AIST/NIMC Database- Spectrum MS-NW-2078
##OWNER=NIST Mass Spectrometry Data Center
Collection (C) 2014 copyright by the U.S. Secretary of Commerce
on behalf of the United States of America. All rights reserved.
##CAS REGISTRY NO=101-80-4
##$NIST MASS SPEC NO=233983
##MOLFORM=C12 H12 N2 O
##MW=200
##$NIST SOURCE=MSDC
##XUNITS=M/Z
##YUNITS=RELATIVE INTENSITY
##XFACTOR=1
##YFACTOR=1
##FIRSTX=15
##LASTX=202
##FIRSTY=10
##MAXX=202
##MINX=15
##MAXY=9999
##MINY=10
##NPOINTS=91
##PEAK TABLE=(XY..XY)
15,10 26,20 27,119 28,109
29,10 30,20 37,20 38,80
39,499 40,40 41,119 42,60
44,10 50,50 51,90 52,249
53,339 54,149 55,20 61,20
62,50 63,149 64,109 65,1049
66,259 67,20 71,20 74,10
75,20 76,30 77,30 78,30
79,40 80,1059 81,80 82,10
83,50 89,10 90,30 91,80
92,459 93,1079 94,80 99,10
100,209 103,10 104,10 106,30
107,10 108,3229 109,479 110,30
115,20 116,10 117,199 118,40
119,30 120,109 121,10 127,50
128,40 129,30 130,99 131,40
132,30 133,10 142,10 143,60
144,139 145,90 146,20 154,109
155,60 156,209 157,40 159,20
169,20 170,20 171,1459 172,299
173,20 174,20 181,10 182,40
183,30 184,20 198,40 199,279
200,9999 201,1369 202,109
##END=
