##TITLE=2-Benzylidene-1-heptanol
##JCAMP-DX=4.24
##DATA TYPE=MASS SPECTRUM
##ORIGIN=NIST Mass Spectrometry Data Center, 1990.
##OWNER=NIST Mass Spectrometry Data Center
Collection (C) 2014 copyright by the U.S. Secretary of Commerce
on behalf of the United States of America. All rights reserved.
##CAS REGISTRY NO=101-85-9
##$NIST MASS SPEC NO=118258
##MOLFORM=C14 H20 O
##MW=204
##$NIST SOURCE=MSDC
##XUNITS=M/Z
##YUNITS=RELATIVE INTENSITY
##XFACTOR=1
##YFACTOR=1
##FIRSTX=17
##LASTX=205
##FIRSTY=115
##MAXX=205
##MINX=17
##MAXY=9999
##MINY=52
##NPOINTS=115
##PEAK TABLE=(XY..XY)
17,115 18,218 26,176 27,1845
28,246 29,2220 30,133 31,941
39,1965 40,346 41,2905 42,275
43,1698 44,130 45,93 50,334
51,1302 52,392 53,651 54,93
55,4709 56,320 57,809 58,95
62,255 63,910 64,245 65,1522
66,162 67,383 68,138 69,388
70,182 71,1180 72,76 74,150
75,277 76,445 77,2034 78,1588
79,956 80,397 81,855 82,644
83,144 85,108 86,101 87,127
88,146 89,816 90,101 91,9999
92,3415 93,439 94,87 95,540
96,160 97,253 98,174 99,1512
100,103 101,122 102,507 103,972
104,3061 105,3917 106,534 107,217
111,105 112,61 113,225 114,61
115,6619 116,2063 117,5664 118,1177
119,357 120,420 125,54 126,131
127,1223 128,2866 129,6400 130,3169
131,2071 132,54 133,8242 134,1444
135,112 141,427 142,227 143,675
144,237 145,776 146,223 147,536
148,2415 149,335 155,90 157,160
158,129 159,130 161,196 162,109
171,93 173,200 174,99 186,127
187,52 188,324 201,240 202,330
203,255 204,1484 205,249
##END=
