##TITLE=Acetaminophen
##JCAMP-DX=4.24
##DATA TYPE=MASS SPECTRUM
##ORIGIN=Japan AIST/NIMC Database- Spectrum MS-IW-3901
##OWNER=NIST Mass Spectrometry Data Center
Collection (C) 2014 copyright by the U.S. Secretary of Commerce
on behalf of the United States of America. All rights reserved.
##CAS REGISTRY NO=103-90-2
##$NIST MASS SPEC NO=229798
##MOLFORM=C8 H9 N O2
##MW=151
##$NIST SOURCE=MSDC
##XUNITS=M/Z
##YUNITS=RELATIVE INTENSITY
##XFACTOR=1
##YFACTOR=1
##FIRSTX=14
##LASTX=153
##FIRSTY=10
##MAXX=153
##MINX=14
##MAXY=9999
##MINY=10
##NPOINTS=69
##PEAK TABLE=(XY..XY)
14,10 15,99 18,10 26,60
27,219 28,129 29,40 30,10
31,10 37,30 38,70 39,209
40,30 41,60 42,109 43,1539
44,50 49,10 50,80 51,169
52,469 53,629 54,179 55,149
56,20 57,20 61,30 62,70
63,129 64,80 65,149 66,40
67,20 68,60 69,20 70,10
71,10 74,10 75,10 76,10
77,20 78,40 79,99 80,1269
81,909 82,169 83,20 89,10
90,10 91,40 92,20 93,30
94,30 95,10 106,10 107,99
108,1159 109,9999 110,799 111,50
120,20 122,40 135,70 136,30
149,20 150,50 151,4409 152,409
153,40
##END=
