##TITLE=5-Acetoxymethyl-2-furaldehyde
##JCAMP-DX=4.24
##DATA TYPE=MASS SPECTRUM
##ORIGIN=Japan AIST/NIMC Database- Spectrum MS-NW-8915
##OWNER=NIST Mass Spectrometry Data Center
Collection (C) 2014 copyright by the U.S. Secretary of Commerce
on behalf of the United States of America. All rights reserved.
##CAS REGISTRY NO=10551-58-3
##$NIST MASS SPEC NO=238867
##MOLFORM=C8 H8 O4
##MW=168
##$NIST SOURCE=MSDC
##XUNITS=M/Z
##YUNITS=RELATIVE INTENSITY
##XFACTOR=1
##YFACTOR=1
##FIRSTX=14
##LASTX=169
##FIRSTY=30
##MAXX=169
##MINX=14
##MAXY=9999
##MINY=10
##NPOINTS=56
##PEAK TABLE=(XY..XY)
14,30 15,199 18,20 26,80
27,349 28,70 29,279 31,20
37,60 38,169 39,529 40,50
41,439 42,159 43,2749 44,70
45,30 49,10 50,209 51,599
52,659 53,1079 54,70 55,50
56,10 60,10 61,20 63,10
66,30 67,30 68,119 69,389
70,30 78,20 79,2719 80,479
81,669 82,40 83,10 95,99
96,50 97,869 98,70 108,40
109,2119 110,179 111,20 123,119
124,20 125,599 126,9999 127,679
128,80 167,30 168,119 169,20
##END=
