##TITLE=Benzene, 1-chloro-4-methyl-
##JCAMP-DX=4.24
##DATA TYPE=MASS SPECTRUM
##ORIGIN=NIST Mass Spectrometry Data Center, 1990.
##OWNER=NIST Mass Spectrometry Data Center
Collection (C) 2014 copyright by the U.S. Secretary of Commerce
on behalf of the United States of America. All rights reserved.
##CAS REGISTRY NO=106-43-4
##$NIST MASS SPEC NO=114651
##MOLFORM=C7 H7 Cl
##MW=126
##$NIST SOURCE=MSDC
##XUNITS=M/Z
##YUNITS=RELATIVE INTENSITY
##XFACTOR=1
##YFACTOR=1
##FIRSTX=14
##LASTX=129
##FIRSTY=36
##MAXX=129
##MINX=14
##MAXY=9999
##MINY=36
##NPOINTS=44
##PEAK TABLE=(XY..XY)
14,36 26,73 27,154 37,174
38,269 39,679 40,66 41,65
43,154 44,92 45,236 49,161
50,646 51,531 52,87 60,81
61,352 62,705 63,1597 64,289
65,1194 66,58 72,75 73,416
74,264 75,367 76,65 84,72
85,166 86,200 87,157 88,65
89,1335 90,65 91,9999 92,778
97,60 99,319 101,87 125,1292
126,3003 127,616 128,951 129,70
##END=
