##TITLE=2-Propenal
##JCAMP-DX=4.24
##DATA TYPE=MASS SPECTRUM
##ORIGIN=NIST Mass Spectrometry Data Center, 1990.
##OWNER=NIST Mass Spectrometry Data Center
Collection (C) 2014 copyright by the U.S. Secretary of Commerce
on behalf of the United States of America. All rights reserved.
##CAS REGISTRY NO=107-02-8
##$NIST MASS SPEC NO=114921
##MOLFORM=C3 H4 O
##MW=56
##$NIST SOURCE=MSDC
##XUNITS=M/Z
##YUNITS=RELATIVE INTENSITY
##XFACTOR=1
##YFACTOR=1
##FIRSTX=13
##LASTX=57
##FIRSTY=223
##MAXX=57
##MINX=13
##MAXY=9999
##MINY=201
##NPOINTS=20
##PEAK TABLE=(XY..XY)
13,223 14,529 16,281 24,423
25,1841 26,7280 27,9549 28,5300
29,5642 36,706 37,1801 38,1508
39,1043 40,227 41,201 52,387
53,1074 55,7183 56,9999 57,415
##END=
