##TITLE=Allyl chloride
##JCAMP-DX=4.24
##DATA TYPE=MASS SPECTRUM
##ORIGIN=NIST Mass Spectrometry Data Center, 1998.
##OWNER=NIST Mass Spectrometry Data Center
Collection (C) 2014 copyright by the U.S. Secretary of Commerce
on behalf of the United States of America. All rights reserved.
##CAS REGISTRY NO=107-05-1
##$NIST MASS SPEC NO=291300
##MOLFORM=C3 H5 Cl
##MW=76
##$NIST SOURCE=MSDC
##XUNITS=M/Z
##YUNITS=RELATIVE INTENSITY
##XFACTOR=1
##YFACTOR=1
##FIRSTX=12
##LASTX=79
##FIRSTY=10
##MAXX=79
##MINX=12
##MAXY=9999
##MINY=10
##NPOINTS=36
##PEAK TABLE=(XY..XY)
12,10 13,10 14,40 15,70
24,20 25,80 26,320 27,500
35,210 36,270 37,1100 38,1530
39,7419 40,1140 41,9999 42,380
47,150 48,140 49,730 50,80
51,230 52,10 59,10 60,60
61,160 62,30 63,50 71,20
72,40 73,120 74,30 75,510
76,3900 77,280 78,1280 79,40
##END=
