##TITLE=2-Propen-1-ol
##JCAMP-DX=4.24
##DATA TYPE=MASS SPECTRUM
##ORIGIN=Japan AIST/NIMC Database- Spectrum MS-NW- 974
##OWNER=NIST Mass Spectrometry Data Center
Collection (C) 2014 copyright by the U.S. Secretary of Commerce
on behalf of the United States of America. All rights reserved.
##CAS REGISTRY NO=107-18-6
##$NIST MASS SPEC NO=227648
##MOLFORM=C3 H6 O
##MW=58
##$NIST SOURCE=MSDC
##XUNITS=M/Z
##YUNITS=RELATIVE INTENSITY
##XFACTOR=1
##YFACTOR=1
##FIRSTX=12
##LASTX=60
##FIRSTY=10
##MAXX=60
##MINX=12
##MAXY=9999
##MINY=10
##NPOINTS=36
##PEAK TABLE=(XY..XY)
12,10 13,30 14,70 15,169
17,30 18,109 19,20 24,30
25,169 26,919 27,2339 28,1519
29,2529 30,1539 31,4129 32,70
33,10 36,70 37,359 38,519
39,2789 40,939 41,589 42,119
43,459 44,10 45,10 52,20
53,129 54,20 55,519 56,80
57,9999 58,2299 59,119 60,20
##END=
