##TITLE=Benzene, 1-chloro-3-methyl-
##JCAMP-DX=4.24
##DATA TYPE=MASS SPECTRUM
##ORIGIN=NIST Mass Spectrometry Data Center, 1990.
##OWNER=NIST Mass Spectrometry Data Center
Collection (C) 2014 copyright by the U.S. Secretary of Commerce
on behalf of the United States of America. All rights reserved.
##CAS REGISTRY NO=108-41-8
##$NIST MASS SPEC NO=114660
##MOLFORM=C7 H7 Cl
##MW=126
##$NIST SOURCE=MSDC
##XUNITS=M/Z
##YUNITS=RELATIVE INTENSITY
##XFACTOR=1
##YFACTOR=1
##FIRSTX=14
##LASTX=129
##FIRSTY=7
##MAXX=129
##MINX=14
##MAXY=9999
##MINY=7
##NPOINTS=44
##PEAK TABLE=(XY..XY)
14,7 26,66 27,124 37,150
38,266 39,690 40,78 41,64
43,116 44,89 45,173 49,158
50,591 51,506 52,79 60,98
61,362 62,692 63,1508 64,309
65,1237 66,67 72,47 73,369
74,256 75,356 76,70 84,89
85,182 86,197 87,156 88,47
89,1342 90,47 91,9999 92,695
97,60 99,316 101,103 125,1026
126,3383 127,605 128,1043 129,73
##END=
