##TITLE=1,4-Pentadiene, 3-methyl-
##JCAMP-DX=4.24
##DATA TYPE=MASS SPECTRUM
##ORIGIN=Japan AIST/NIMC Database- Spectrum MS-NW-6768
##OWNER=NIST Mass Spectrometry Data Center
Collection (C) 2014 copyright by the U.S. Secretary of Commerce
on behalf of the United States of America. All rights reserved.
##CAS REGISTRY NO=1115-08-8
##$NIST MASS SPEC NO=238209
##MOLFORM=C6 H10
##MW=82
##$NIST SOURCE=MSDC
##XUNITS=M/Z
##YUNITS=RELATIVE INTENSITY
##XFACTOR=1
##YFACTOR=1
##FIRSTX=14
##LASTX=83
##FIRSTY=20
##MAXX=83
##MINX=14
##MAXY=9999
##MINY=10
##NPOINTS=46
##PEAK TABLE=(XY..XY)
14,20 15,60 25,20 26,239
27,1659 28,259 29,729 30,20
31,20 32,10 37,119 38,239
39,2449 40,469 41,3339 42,499
43,109 49,70 50,349 51,499
52,219 53,1159 54,1159 55,829
56,119 57,10 60,10 61,50
62,80 63,129 64,30 65,999
66,279 67,9999 68,569 69,20
73,10 74,20 75,10 77,169
78,30 79,409 80,60 81,1099
82,1309 83,90
##END=
