##TITLE=Methanone, (4-hydroxyphenyl)phenyl-
##JCAMP-DX=4.24
##DATA TYPE=MASS SPECTRUM
##ORIGIN=Japan AIST/NIMC Database- Spectrum MS-NW-2461
##OWNER=NIST Mass Spectrometry Data Center
Collection (C) 2014 copyright by the U.S. Secretary of Commerce
on behalf of the United States of America. All rights reserved.
##CAS REGISTRY NO=1137-42-4
##$NIST MASS SPEC NO=230992
##MOLFORM=C13 H10 O2
##MW=198
##$NIST SOURCE=MSDC
##XUNITS=M/Z
##YUNITS=RELATIVE INTENSITY
##XFACTOR=1
##YFACTOR=1
##FIRSTX=14
##LASTX=200
##FIRSTY=30
##MAXX=200
##MINX=14
##MAXY=9999
##MINY=10
##NPOINTS=100
##PEAK TABLE=(XY..XY)
14,30 16,10 26,20 27,99
28,149 29,30 37,40 38,139
39,859 40,40 41,30 43,40
44,10 49,20 50,289 51,829
52,60 53,149 54,10 55,40
56,10 57,40 58,10 61,30
62,109 63,289 64,159 65,1439
66,109 67,20 69,30 70,20
71,30 72,20 73,20 74,129
75,99 76,169 77,2059 78,189
79,10 81,10 83,20 84,60
85,369 86,20 87,30 88,10
89,50 91,20 92,139 93,1249
94,139 95,20 97,20 98,20
99,10 101,10 102,20 104,20
105,2089 106,159 107,10 109,10
110,10 111,20 113,20 114,20
115,239 116,30 120,149 121,9999
122,759 123,70 125,10 126,10
127,10 139,109 140,40 141,249
142,40 150,20 151,40 152,50
153,10 165,10 166,10 168,40
169,119 170,129 171,10 180,40
181,169 182,40 183,10 196,20
197,469 198,4839 199,699 200,60
##END=
