##TITLE=[1,1'-Biphenyl]-4,4'-diamine, 3,3'-dimethyl-
##JCAMP-DX=4.24
##DATA TYPE=MASS SPECTRUM
##ORIGIN=NIST Mass Spectrometry Data Center, 1998.
##OWNER=NIST Mass Spectrometry Data Center
Collection (C) 2014 copyright by the U.S. Secretary of Commerce
on behalf of the United States of America. All rights reserved.
##CAS REGISTRY NO=119-93-7
##$NIST MASS SPEC NO=291165
##MOLFORM=C14 H16 N2
##MW=212
##$NIST SOURCE=MSDC
##XUNITS=M/Z
##YUNITS=RELATIVE INTENSITY
##XFACTOR=1
##YFACTOR=1
##FIRSTX=27
##LASTX=215
##FIRSTY=30
##MAXX=215
##MINX=27
##MAXY=9999
##MINY=10
##NPOINTS=138
##PEAK TABLE=(XY..XY)
27,30 29,10 30,40 38,10
39,90 40,10 41,50 42,60
43,10 44,10 50,40 51,140
52,110 53,80 54,80 55,10
56,10 57,10 58,20 61,10
62,40 63,120 64,50 65,100
66,40 67,20 68,10 70,40
71,50 74,30 75,70 76,110
77,300 78,120 79,80 80,110
81,40 82,40 83,200 86,20
87,30 88,40 89,120 90,170
91,150 92,40 93,40 94,10
95,30 96,130 97,10 98,470
100,10 101,40 102,70 103,90
104,250 105,550 106,1370 108,10
111,10 113,40 114,40 115,260
116,80 117,80 118,40 119,20
120,80 121,10 125,10 126,50
127,150 128,180 129,70 130,250
131,100 132,30 133,10 137,10
138,10 139,130 140,100 141,120
142,60 143,140 144,110 145,30
146,10 150,30 151,140 152,320
153,180 154,190 155,80 156,110
157,50 158,20 159,10 163,50
164,50 165,250 166,140 167,310
168,340 169,290 170,160 171,40
172,20 176,50 177,60 178,140
179,130 180,800 181,390 182,260
183,80 184,70 185,30 186,10
190,20 191,30 192,50 193,130
194,310 195,800 196,900 197,360
198,40 207,10 208,20 209,80
210,70 211,1560 212,9999 213,1660
214,130 215,10
##END=
