##TITLE=Benzidine, 3,3'-dimethoxy-
##JCAMP-DX=4.24
##DATA TYPE=MASS SPECTRUM
##ORIGIN=Japan AIST/NIMC Database- Spectrum MS-IW-3876
##OWNER=NIST Mass Spectrometry Data Center
Collection (C) 2014 copyright by the U.S. Secretary of Commerce
on behalf of the United States of America. All rights reserved.
##CAS REGISTRY NO=119-90-4
##$NIST MASS SPEC NO=236480
##MOLFORM=C14 H16 N2 O2
##MW=244
##$NIST SOURCE=MSDC
##XUNITS=M/Z
##YUNITS=RELATIVE INTENSITY
##XFACTOR=1
##YFACTOR=1
##FIRSTX=15
##LASTX=247
##FIRSTY=20
##MAXX=247
##MINX=15
##MAXY=9999
##MINY=10
##NPOINTS=136
##PEAK TABLE=(XY..XY)
15,20 27,30 28,159 29,10
39,60 41,40 42,20 43,10
50,40 51,119 52,119 53,50
54,70 55,20 57,30 58,60
62,30 63,90 64,70 65,169
66,50 67,10 69,10 70,90
71,149 72,30 74,20 75,50
76,60 77,169 78,179 79,1229
80,40 81,10 83,10 84,229
85,259 86,70 87,30 88,30
89,90 90,50 91,90 92,40
93,649 94,10 97,10 98,10
99,139 100,249 101,60 102,70
103,80 104,109 105,30 106,40
107,419 108,30 109,10 113,40
114,549 115,219 116,60 117,70
118,20 121,10 122,939 123,40
125,10 126,20 127,30 128,60
129,40 130,189 131,50 132,30
133,10 139,10 140,90 141,70
142,60 143,70 144,20 145,20
146,10 147,10 152,20 153,30
154,80 155,70 156,50 157,129
158,829 159,109 160,10 166,30
167,30 168,50 169,179 170,109
171,70 172,40 173,20 181,40
182,90 183,99 184,139 185,90
186,879 187,109 188,10 196,10
197,60 198,169 199,119 200,109
201,3639 202,509 203,40 211,20
212,40 213,129 214,119 215,99
225,10 227,20 228,20 229,1649
230,269 231,20 242,60 243,239
244,9999 245,1609 246,169 247,10
##END=
