##TITLE=Benzoic acid, 3-nitro-
##JCAMP-DX=4.24
##DATA TYPE=MASS SPECTRUM
##ORIGIN=NIST Mass Spectrometry Data Center, 1998.
##OWNER=NIST Mass Spectrometry Data Center
Collection (C) 2014 copyright by the U.S. Secretary of Commerce
on behalf of the United States of America. All rights reserved.
##CAS REGISTRY NO=121-92-6
##$NIST MASS SPEC NO=290680
##MOLFORM=C7 H5 N O4
##MW=167
##$NIST SOURCE=MSDC
##XUNITS=M/Z
##YUNITS=RELATIVE INTENSITY
##XFACTOR=1
##YFACTOR=1
##FIRSTX=18
##LASTX=169
##FIRSTY=60
##MAXX=169
##MINX=18
##MAXY=9999
##MINY=20
##NPOINTS=59
##PEAK TABLE=(XY..XY)
18,60 27,220 29,90 30,1010
37,300 38,530 39,2140 40,90
41,70 44,100 45,610 46,260
49,220 50,3450 51,2160 52,260
53,890 54,60 55,80 60,80
61,240 62,370 63,810 64,470
65,9999 66,660 67,80 73,370
74,1960 75,2410 76,2360 77,380
79,70 81,1030 82,110 89,40
90,30 91,120 92,790 93,820
102,20 103,560 104,800 105,120
106,60 109,650 110,100 119,110
120,930 121,4570 122,470 137,2460
138,190 139,30 150,380 151,300
167,7269 168,630 169,110
##END=
