##TITLE=Ethanone, 1-(4-methylphenyl)-
##JCAMP-DX=4.24
##DATA TYPE=MASS SPECTRUM
##ORIGIN=NIST Mass Spectrometry Data Center, 1990.
##OWNER=NIST Mass Spectrometry Data Center
Collection (C) 2014 copyright by the U.S. Secretary of Commerce
on behalf of the United States of America. All rights reserved.
##CAS REGISTRY NO=122-00-9
##$NIST MASS SPEC NO=114751
##MOLFORM=C9 H10 O
##MW=134
##$NIST SOURCE=MSDC
##XUNITS=M/Z
##YUNITS=RELATIVE INTENSITY
##XFACTOR=1
##YFACTOR=1
##FIRSTX=14
##LASTX=135
##FIRSTY=18
##MAXX=135
##MINX=14
##MAXY=9999
##MINY=18
##NPOINTS=47
##PEAK TABLE=(XY..XY)
14,18 15,115 27,185 37,71
38,229 39,1137 40,132 41,239
42,116 43,910 44,50 46,112
49,57 50,559 51,693 52,173
53,122 59,55 61,183 62,538
63,1299 64,368 65,2738 66,186
73,43 74,200 75,132 76,111
77,374 78,103 79,114 85,67
86,133 87,103 88,43 89,974
90,43 91,8294 92,639 103,94
104,44 105,148 119,9999 120,932
121,48 134,3205 135,315
##END=
