##TITLE=Phenol, 4-ethyl-
##JCAMP-DX=4.24
##DATA TYPE=MASS SPECTRUM
##ORIGIN=NIST Mass Spectrometry Data Center
##OWNER=NIST Mass Spectrometry Data Center
Collection (C) 2014 copyright by the U.S. Secretary of Commerce
on behalf of the United States of America. All rights reserved.
##CAS REGISTRY NO=123-07-9
##$NIST MASS SPEC NO=341131
##MOLFORM=C8 H10 O
##MW=122
##$NIST SOURCE=MSDC
##XUNITS=M/Z
##YUNITS=RELATIVE INTENSITY
##XFACTOR=1
##YFACTOR=1
##FIRSTX=15
##LASTX=124
##FIRSTY=10
##MAXX=124
##MINX=15
##MAXY=9999
##MINY=10
##NPOINTS=63
##PEAK TABLE=(XY..XY)
15,10 26,20 27,110 29,30
37,20 38,80 39,450 40,50
41,80 42,10 43,30 45,20
46,20 49,10 50,190 51,430
52,190 53,340 54,20 55,150
59,40 60,70 61,80 62,150
63,330 64,80 65,430 66,140
67,40 68,10 73,10 74,70
75,50 76,30 77,1742 78,380
79,270 80,20 81,60 86,10
87,10 89,80 90,20 91,550
92,60 93,110 94,160 95,30
101,10 102,30 103,230 104,20
105,80 107,9999 108,881 109,50
118,10 119,60 120,90 121,310
122,3743 123,330 124,20
##END=
