##TITLE=Acetylacetone
##JCAMP-DX=4.24
##DATA TYPE=MASS SPECTRUM
##OWNER=NIST Mass Spectrometry Data Center
Collection (C) 2014 copyright by the U.S. Secretary of Commerce
on behalf of the United States of America. All rights reserved.
##CAS REGISTRY NO=123-54-6
##$NIST MASS SPEC NO=19843
##MOLFORM=C5 H8 O2
##MW=100
##$NIST SOURCE=MSDC
##XUNITS=M/Z
##YUNITS=RELATIVE INTENSITY
##XFACTOR=1
##YFACTOR=1
##FIRSTX=2
##LASTX=102
##FIRSTY=20
##MAXX=102
##MINX=2
##MAXY=9999
##MINY=10
##NPOINTS=64
##PEAK TABLE=(XY..XY)
2,20 12,30 13,100 14,480
15,1882 16,30 17,10 18,20
19,10 24,10 25,60 26,330
27,911 28,170 29,791 30,40
31,430 32,10 33,10 36,20
37,120 38,190 39,540 40,90
41,601 42,721 43,9999 44,230
45,80 48,10 49,20 50,40
51,30 52,10 53,90 54,10
55,150 56,10 57,70 58,350
59,10 60,10 61,10 62,10
63,10 64,10 65,10 66,10
67,30 68,10 69,80 70,10
71,10 72,330 81,10 82,10
83,10 84,40 85,2722 86,120
87,10 100,1822 101,110 102,10
##END=
