##TITLE=Benzenamine, 4,4'-thiobis-
##JCAMP-DX=4.24
##DATA TYPE=MASS SPECTRUM
##ORIGIN=Japan AIST/NIMC Database- Spectrum MS-NW-4083
##OWNER=NIST Mass Spectrometry Data Center
Collection (C) 2014 copyright by the U.S. Secretary of Commerce
on behalf of the United States of America. All rights reserved.
##CAS REGISTRY NO=139-65-1
##$NIST MASS SPEC NO=232599
##MOLFORM=C12 H12 N2 S
##MW=216
##$NIST SOURCE=MSDC
##XUNITS=M/Z
##YUNITS=RELATIVE INTENSITY
##XFACTOR=1
##YFACTOR=1
##FIRSTX=15
##LASTX=219
##FIRSTY=20
##MAXX=219
##MINX=15
##MAXY=9999
##MINY=10
##NPOINTS=156
##PEAK TABLE=(XY..XY)
15,20 26,20 27,70 28,50
29,10 30,40 37,40 38,149
39,649 40,60 41,179 42,99
43,10 44,10 45,199 46,10
47,10 50,70 51,109 52,269
53,319 54,199 55,10 56,10
57,10 58,20 59,10 60,30
61,40 62,109 63,339 64,199
65,929 66,249 67,70 68,10
69,179 70,109 71,80 72,30
73,10 74,30 75,30 76,30
77,60 78,60 79,40 80,1189
81,109 82,30 83,10 84,30
85,10 86,30 88,10 89,40
90,90 91,189 92,409 93,369
94,50 95,50 96,80 97,239
98,30 99,139 100,20 101,20
102,20 103,20 104,20 106,40
107,60 108,459 109,30 114,10
115,60 116,40 117,249 118,50
119,20 121,10 122,50 123,129
124,989 125,169 126,60 127,70
128,60 129,30 130,139 131,30
132,10 134,10 136,60 139,50
140,30 141,20 142,10 143,99
144,50 145,20 146,10 147,20
148,10 149,40 150,10 152,10
153,20 154,129 155,60 156,409
157,80 158,30 159,10 160,10
161,10 162,40 163,10 164,10
165,10 166,109 167,139 168,60
169,40 170,20 171,239 172,80
173,40 174,30 175,90 176,10
181,99 182,279 183,879 184,3519
185,499 186,99 187,70 188,209
189,40 190,20 196,10 197,20
198,179 199,349 200,309 201,139
202,30 213,20 214,229 215,1469
216,9999 217,1529 218,519 219,60
##END=
