##TITLE=4-Aminobenzoic acid
##JCAMP-DX=4.24
##DATA TYPE=MASS SPECTRUM
##ORIGIN=NIST Mass Spectrometry Data Center, 1990.
##OWNER=NIST Mass Spectrometry Data Center
Collection (C) 2014 copyright by the U.S. Secretary of Commerce
on behalf of the United States of America. All rights reserved.
##CAS REGISTRY NO=150-13-0
##$NIST MASS SPEC NO=118372
##MOLFORM=C7 H7 N O2
##MW=137
##$NIST SOURCE=MSDC
##XUNITS=M/Z
##YUNITS=RELATIVE INTENSITY
##XFACTOR=1
##YFACTOR=1
##FIRSTX=26
##LASTX=139
##FIRSTY=142
##MAXX=139
##MINX=26
##MAXY=9999
##MINY=46
##NPOINTS=45
##PEAK TABLE=(XY..XY)
26,142 27,222 28,57 29,115
31,46 37,314 38,698 39,1550
40,256 41,509 42,140 45,289
46,197 50,310 51,278 52,578
53,408 54,508 60,191 61,195
62,512 63,1050 64,816 65,3782
66,550 67,109 68,54 74,147
75,98 76,60 80,317 81,197
82,58 89,64 90,213 91,547
92,3916 93,292 108,195 109,113
120,9999 121,803 137,7924 138,698
139,83
##END=
