##TITLE=Nonane, 5-methyl-
##JCAMP-DX=4.24
##DATA TYPE=MASS SPECTRUM
##ORIGIN=Japan AIST/NIMC Database- Spectrum MS-NW-4072
##OWNER=NIST Mass Spectrometry Data Center
Collection (C) 2014 copyright by the U.S. Secretary of Commerce
on behalf of the United States of America. All rights reserved.
##CAS REGISTRY NO=15869-85-9
##$NIST MASS SPEC NO=227581
##MOLFORM=C10 H22
##MW=142
##$NIST SOURCE=MSDC
##XUNITS=M/Z
##YUNITS=RELATIVE INTENSITY
##XFACTOR=1
##YFACTOR=1
##FIRSTX=15
##LASTX=143
##FIRSTY=20
##MAXX=143
##MINX=15
##MAXY=9999
##MINY=10
##NPOINTS=46
##PEAK TABLE=(XY..XY)
15,20 26,30 27,809 28,60
29,1139 30,20 38,20 39,479
40,80 41,1869 42,599 43,9999
44,339 50,10 51,30 52,10
53,129 54,70 55,849 56,1289
57,2829 58,129 65,20 67,40
68,20 69,469 70,90 71,669
72,30 77,10 81,10 83,40
84,3249 85,5469 86,369 87,10
97,10 98,129 99,70 112,159
113,99 126,40 127,99 128,10
142,139 143,10
##END=
