##TITLE=4H-Cyclopenta[def]phenanthrene
##JCAMP-DX=4.24
##DATA TYPE=MASS SPECTRUM
##ORIGIN=Japan AIST/NIMC Database- Spectrum MS-NW-8725
##OWNER=NIST Mass Spectrometry Data Center
Collection (C) 2014 copyright by the U.S. Secretary of Commerce
on behalf of the United States of America. All rights reserved.
##CAS REGISTRY NO=203-64-5
##$NIST MASS SPEC NO=228756
##MOLFORM=C15 H10
##MW=190
##$NIST SOURCE=MSDC
##XUNITS=M/Z
##YUNITS=RELATIVE INTENSITY
##XFACTOR=1
##YFACTOR=1
##FIRSTX=27
##LASTX=193
##FIRSTY=10
##MAXX=193
##MINX=27
##MAXY=9999
##MINY=10
##NPOINTS=75
##PEAK TABLE=(XY..XY)
27,10 31,20 38,10 39,60
43,10 44,10 45,20 50,50
51,50 52,10 55,10 56,10
61,20 62,70 63,229 64,10
65,10 67,20 68,40 69,10
74,99 75,70 76,30 77,10
78,40 79,10 80,40 81,509
82,99 85,20 86,109 87,149
88,40 89,50 93,1089 94,2749
95,1439 96,20 98,70 99,40
100,10 109,10 110,60 111,60
112,10 113,50 115,10 119,10
122,30 123,10 126,10 134,20
135,20 136,10 137,60 138,20
139,50 150,30 151,10 152,10
161,119 162,139 163,429 164,80
165,20 178,30 185,99 186,259
187,1649 188,1279 189,8309 190,9999
191,1579 192,189 193,20
##END=
