##TITLE=1,1'-Biphenyl, 4,4'-dichloro-
##JCAMP-DX=4.24
##DATA TYPE=MASS SPECTRUM
##ORIGIN=NIST Mass Spectrometry Data Center, 1990.
##OWNER=NIST Mass Spectrometry Data Center
Collection (C) 2014 copyright by the U.S. Secretary of Commerce
on behalf of the United States of America. All rights reserved.
##CAS REGISTRY NO=2050-68-2
##$NIST MASS SPEC NO=113425
##MOLFORM=C12 H8 Cl2
##MW=222
##$NIST SOURCE=MSDC
##XUNITS=M/Z
##YUNITS=RELATIVE INTENSITY
##XFACTOR=1
##YFACTOR=1
##FIRSTX=28
##LASTX=227
##FIRSTY=243
##MAXX=227
##MINX=28
##MAXY=9999
##MINY=52
##NPOINTS=69
##PEAK TABLE=(XY..XY)
28,243 32,95 38,107 39,171
49,114 50,659 51,585 60,68
61,223 62,486 63,657 72,52
73,330 74,1016 75,2168 76,1067
77,211 80,187 81,83 84,91
85,247 86,399 87,367 88,92
89,66 93,973 94,368 97,161
98,521 99,503 100,198 101,403
102,139 109,65 110,189 111,675
112,360 113,225 114,158 121,60
122,122 123,171 124,90 125,425
126,534 127,119 136,231 137,75
138,124 149,273 150,1404 151,2110
152,7184 153,937 154,56 160,174
161,70 162,118 173,59 186,725
187,202 188,243 196,56 222,9999
223,1451 224,6240 225,829 226,1047
227,134
##END=
