##TITLE=4-Decanol
##JCAMP-DX=4.24
##DATA TYPE=MASS SPECTRUM
##ORIGIN=D.HENNEBERG, MAX-PLANCK INSTITUTE, MULHEIM, WEST GERMANY
##OWNER=NIST Mass Spectrometry Data Center
Collection (C) 2014 copyright by the U.S. Secretary of Commerce
on behalf of the United States of America. All rights reserved.
##CAS REGISTRY NO=2051-31-2
##$NIST MASS SPEC NO=60921
##MOLFORM=C10 H22 O
##MW=158
##$NIST SOURCE=MSDC
##XUNITS=M/Z
##YUNITS=RELATIVE INTENSITY
##XFACTOR=1
##YFACTOR=1
##FIRSTX=25
##LASTX=158
##FIRSTY=6
##MAXX=158
##MINX=25
##MAXY=9999
##MINY=2
##NPOINTS=74
##PEAK TABLE=(XY..XY)
25,6 26,80 27,968 28,258
29,1118 30,36 31,591 32,6
36,3 38,16 39,397 40,68
41,1756 42,522 43,3013 44,427
45,214 46,5 49,11 50,10
51,21 52,13 53,115 54,112
55,9999 56,993 57,646 58,216
59,64 63,3 65,16 66,14
67,108 68,94 69,1158 70,505
71,306 72,412 73,4392 74,190
75,10 77,12 79,142 81,61
82,70 83,185 84,155 85,97
86,93 87,22 88,2 91,5
93,3 94,2 95,17 96,72
97,3156 98,289 99,41 100,3
101,4 110,8 111,64 112,35
113,90 114,59 115,1097 116,86
117,6 140,225 141,27 156,6
157,17 158,3
##END=
