##TITLE=6-Monoacetylmorphine
##JCAMP-DX=4.24
##DATA TYPE=MASS SPECTRUM
##ORIGIN=NIST Mass Spectrometry Data Center
##OWNER=NIST Mass Spectrometry Data Center
Collection (C) 2014 copyright by the U.S. Secretary of Commerce
on behalf of the United States of America. All rights reserved.
##CAS REGISTRY NO=2784-73-8
##$NIST MASS SPEC NO=352203
##MOLFORM=C19 H21 N O4
##MW=327
##$NIST SOURCE=MSDC
##XUNITS=M/Z
##YUNITS=RELATIVE INTENSITY
##XFACTOR=1
##YFACTOR=1
##FIRSTX=14
##LASTX=330
##FIRSTY=10
##MAXX=330
##MINX=14
##MAXY=9999
##MINY=10
##NPOINTS=260
##PEAK TABLE=(XY..XY)
14,10 15,150 25,10 26,20
27,210 28,130 29,150 30,450
31,510 36,10 38,40 39,530
40,80 41,480 42,5215 43,6186
44,2983 45,180 46,10 49,10
50,120 51,561 52,240 53,791
54,210 55,1031 56,470 57,741
58,1281 59,2102 60,340 61,80
62,80 63,460 64,170 65,681
66,200 67,300 68,260 69,140
70,1822 71,170 72,100 74,80
75,230 76,320 77,1281 78,460
79,450 80,310 81,2772 82,821
83,350 84,170 85,40 86,80
87,100 88,120 89,561 90,220
91,1231 92,240 93,220 94,2462
95,400 96,671 97,150 99,110
100,50 101,350 102,460 103,771
104,440 105,871 106,320 107,550
108,410 109,621 110,350 111,80
112,350 113,170 114,230 115,2873
116,641 117,601 118,400 119,250
120,330 121,200 122,250 123,230
124,2442 125,260 126,320 127,1301
128,1431 129,681 130,310 131,1021
132,540 133,330 134,801 135,330
136,180 137,80 138,130 139,741
140,280 141,1011 142,280 143,300
144,1121 145,661 146,3703 147,931
148,420 149,120 150,190 151,540
152,2042 153,1301 154,490 155,500
156,220 157,490 158,230 159,230
160,430 161,841 162,2642 163,751
164,921 165,1621 166,781 167,520
168,530 169,571 170,320 171,821
172,360 173,741 174,1601 175,691
176,701 177,300 178,430 179,500
180,330 181,1201 182,540 183,310
184,621 185,410 186,340 187,220
188,140 189,160 190,140 191,200
192,100 193,350 194,260 195,330
196,330 197,981 198,601 199,350
200,781 201,220 202,430 203,270
204,1862 205,380 206,160 207,330
208,250 209,601 210,1201 211,1601
212,360 213,250 214,711 215,3974
216,981 217,150 218,70 219,110
220,110 221,140 222,160 223,260
224,420 225,380 226,861 227,390
228,530 229,140 230,30 231,10
232,20 233,20 234,80 235,110
236,130 237,160 238,400 239,290
240,360 241,110 242,200 243,30
244,10 246,10 247,10 248,50
249,20 250,200 251,80 252,370
253,180 254,150 255,60 256,160
257,100 258,30 259,10 262,10
263,10 264,40 265,20 266,1702
267,1491 268,9368 269,1762 270,400
271,60 272,10 278,10 280,10
282,50 283,10 284,1041 285,330
286,60 294,10 298,30 299,50
300,10 310,30 312,50 313,10
319,10 321,10 325,50 326,831
327,9999 328,2072 329,290 330,30
##END=
