##TITLE=1,1'-Biphenyl, 3,4'-dichloro-
##JCAMP-DX=4.24
##DATA TYPE=MASS SPECTRUM
##ORIGIN=Organic Synthesis Lab, MSU, Moscow.TRC 1374
##OWNER=NIST Mass Spectrometry Data Center
Collection (C) 2014 copyright by the U.S. Secretary of Commerce
on behalf of the United States of America. All rights reserved.
##CAS REGISTRY NO=2974-90-5
##$NIST MASS SPEC NO=326721
##MOLFORM=C12 H8 Cl2
##MW=222
##$NIST SOURCE=MSDC
##XUNITS=M/Z
##YUNITS=RELATIVE INTENSITY
##XFACTOR=1
##YFACTOR=1
##FIRSTX=41
##LASTX=227
##FIRSTY=18
##MAXX=227
##MINX=41
##MAXY=9999
##MINY=14
##NPOINTS=89
##PEAK TABLE=(XY..XY)
41,18 43,30 44,75 45,14
47,30 49,136 50,860 51,678
52,88 55,40 56,47 57,28
60,64 61,266 62,571 63,708
64,51 67,17 68,31 69,24
72,43 73,282 74,733 75,2158
76,1129 77,192 80,196 81,92
84,61 85,171 86,260 87,280
88,71 89,75 93,1296 94,428
96,20 97,129 98,385 99,353
100,138 101,291 102,106 108,26
109,55 110,152 111,545 112,343
113,170 114,72 115,17 120,25
121,60 122,116 123,148 124,55
125,311 126,436 127,85 135,19
136,159 137,64 138,71 147,44
148,39 149,195 150,1101 151,1668
152,6899 153,865 154,52 160,103
161,66 162,82 173,36 185,53
186,663 187,227 188,261 189,57
196,32 198,25 220,39 222,9999
223,1221 224,6026 225,879 226,1035
227,138
##END=
