##TITLE=1,1'-Biphenyl, 3,4-dichloro-
##JCAMP-DX=4.24
##DATA TYPE=MASS SPECTRUM
##ORIGIN=T.L.Hayes, Battelle Columbus Laboratories, Columbus, OH 43221
##OWNER=NIST Mass Spectrometry Data Center
Collection (C) 2014 copyright by the U.S. Secretary of Commerce
on behalf of the United States of America. All rights reserved.
##CAS REGISTRY NO=2974-92-7
##$NIST MASS SPEC NO=80784
##MOLFORM=C12 H8 Cl2
##MW=222
##$NIST SOURCE=MSDC
##XUNITS=M/Z
##YUNITS=RELATIVE INTENSITY
##XFACTOR=1
##YFACTOR=1
##FIRSTX=33
##LASTX=227
##FIRSTY=16
##MAXX=227
##MINX=33
##MAXY=9999
##MINY=7
##NPOINTS=122
##PEAK TABLE=(XY..XY)
33,16 34,49 35,62 36,176
37,167 38,244 39,494 40,279
41,45 43,50 44,16 45,13
47,10 49,144 50,968 51,1042
52,236 53,16 55,49 56,52
57,59 60,41 61,369 62,783
63,1005 64,33 65,75 66,8
67,44 68,37 71,12 72,31
73,370 74,1167 75,3010 76,2616
77,491 78,112 79,26 80,591
81,219 82,23 84,184 85,401
86,459 87,406 88,51 89,92
91,39 92,171 93,2245 94,985
96,82 97,223 98,684 99,714
100,165 101,168 102,453 103,53
107,24 108,65 109,217 110,245
111,1113 112,575 113,281 114,48
115,35 120,27 121,54 122,131
123,196 124,93 125,350 126,575
127,62 128,24 133,68 134,31
135,142 136,77 137,69 138,22
139,8 146,40 147,98 148,166
149,267 150,1856 151,2437 152,9999
153,1183 154,47 158,13 159,55
160,161 161,87 162,71 163,21
170,65 172,63 183,64 184,33
185,109 186,1003 187,241 188,532
189,80 194,8 196,68 197,9
198,28 208,7 209,24 220,9
222,9802 223,1342 224,6019 225,750
226,976 227,100
##END=
