##TITLE=Benzene, 2-propenyl-
##JCAMP-DX=4.24
##DATA TYPE=MASS SPECTRUM
##OWNER=NIST Mass Spectrometry Data Center
Collection (C) 2014 copyright by the U.S. Secretary of Commerce
on behalf of the United States of America. All rights reserved.
##CAS REGISTRY NO=300-57-2
##$NIST MASS SPEC NO=2025
##MOLFORM=C9 H10
##MW=118
##$NIST SOURCE=MSDC
##XUNITS=M/Z
##YUNITS=RELATIVE INTENSITY
##XFACTOR=1
##YFACTOR=1
##FIRSTX=2
##LASTX=120
##FIRSTY=20
##MAXX=120
##MINX=2
##MAXY=9999
##MINY=10
##NPOINTS=94
##PEAK TABLE=(XY..XY)
2,20 12,10 13,20 14,60
15,180 16,10 24,10 25,20
26,290 27,951 28,90 29,60
30,10 36,10 37,170 38,440
39,2472 40,220 41,420 42,20
43,60 44,30 45,60 46,10
48,10 49,70 50,811 51,1651
52,430 53,130 54,10 55,60
56,30 57,200 58,911 59,60
60,10 61,130 62,380 63,981
64,220 65,1401 66,130 67,20
68,10 69,10 70,10 71,10
72,70 73,240 74,240 75,190
76,160 77,681 78,1021 79,110
80,10 81,10 82,10 83,10
84,10 85,40 86,80 87,90
88,40 89,550 90,270 91,4054
92,370 93,20 94,10 95,10
96,10 97,10 98,10 99,10
101,20 102,180 103,781 104,100
105,10 108,10 109,10 110,10
111,10 112,10 113,30 114,60
115,2532 116,741 117,9999 118,8057
119,731 120,30
##END=
