##TITLE=1,1'-Biphenyl, 3,3',4,4'-tetrachloro-
##JCAMP-DX=4.24
##DATA TYPE=MASS SPECTRUM
##ORIGIN=T.L.Hayes, Battelle Columbus Laboratories, Columbus, OH 43221
##OWNER=NIST Mass Spectrometry Data Center
Collection (C) 2014 copyright by the U.S. Secretary of Commerce
on behalf of the United States of America. All rights reserved.
##CAS REGISTRY NO=32598-13-3
##$NIST MASS SPEC NO=80774
##MOLFORM=C12 H6 Cl4
##MW=290
##$NIST SOURCE=MSDC
##XUNITS=M/Z
##YUNITS=RELATIVE INTENSITY
##XFACTOR=1
##YFACTOR=1
##FIRSTX=31
##LASTX=298
##FIRSTY=8
##MAXX=298
##MINX=31
##MAXY=9999
##MINY=5
##NPOINTS=116
##PEAK TABLE=(XY..XY)
31,8 32,1114 34,5 35,317
36,1327 37,254 38,477 39,105
40,43 44,417 45,68 47,65
50,821 51,315 55,48 60,133
61,647 62,643 63,243 66,13
67,49 68,21 69,53 71,48
72,189 73,795 74,2124 75,1684
77,122 78,61 79,179 80,146
83,23 84,362 85,860 86,300
92,2367 93,1108 94,41 95,19
96,72 97,612 98,1053 99,1182
100,160 101,28 105,8 107,124
108,215 109,1241 110,3357 111,2494
112,396 113,125 116,22 121,143
122,305 123,558 124,82 127,1098
128,1016 129,426 130,38 131,9
132,54 133,174 134,174 135,367
136,89 137,107 144,15 145,748
146,1110 147,303 148,90 149,996
150,2272 151,264 159,176 160,129
161,55 170,431 171,49 172,275
173,16 174,5 183,170 184,1480
185,912 186,108 187,363 194,145
196,100 198,173 204,5 206,48
207,20 220,5596 221,735 222,3717
223,410 224,330 225,63 254,153
255,99 256,150 258,66 290,7470
291,948 292,9999 293,1279 294,4491
295,573 296,1061 297,98 298,29
##END=
