##TITLE=1,1'-Biphenyl, 3,3',5,5'-tetrachloro-
##JCAMP-DX=4.24
##DATA TYPE=MASS SPECTRUM
##ORIGIN=Organic Synthesis Lab, MSU, Moscow.TRC 1307
##OWNER=NIST Mass Spectrometry Data Center
Collection (C) 2014 copyright by the U.S. Secretary of Commerce
on behalf of the United States of America. All rights reserved.
##CAS REGISTRY NO=33284-52-5
##$NIST MASS SPEC NO=326675
##MOLFORM=C12 H6 Cl4
##MW=290
##$NIST SOURCE=MSDC
##XUNITS=M/Z
##YUNITS=RELATIVE INTENSITY
##XFACTOR=1
##YFACTOR=1
##FIRSTX=41
##LASTX=298
##FIRSTY=17
##MAXX=298
##MINX=41
##MAXY=9999
##MINY=12
##NPOINTS=108
##PEAK TABLE=(XY..XY)
41,17 43,24 44,119 47,45
49,164 50,393 51,115 55,25
56,19 59,13 60,99 61,334
62,307 63,125 69,12 71,21
72,67 73,336 74,856 75,642
76,59 79,90 84,181 85,283
86,258 87,192 88,27 92,787
93,327 95,15 96,44 97,225
98,442 99,419 100,70 107,57
108,101 109,449 110,1293 111,729
113,19 115,23 119,21 120,57
121,78 122,139 123,240 124,69
125,45 127,397 128,339 129,122
130,34 131,14 132,26 133,65
134,56 135,123 136,31 137,26
144,27 145,230 146,310 147,260
148,165 149,409 150,978 151,114
157,30 158,25 159,67 160,81
161,38 162,16 170,95 172,87
174,37 182,18 183,87 184,670
185,559 186,227 187,162 194,56
195,15 196,47 218,52 219,132
220,3393 221,522 222,2199 223,276
224,354 225,41 254,196 255,53
256,212 257,34 258,88 290,8250
291,1087 292,9999 293,1265 294,4546
295,541 296,1029 297,157 298,96
##END=
