##TITLE=1,1'-Biphenyl, 3,5-dichloro-
##JCAMP-DX=4.24
##DATA TYPE=MASS SPECTRUM
##ORIGIN=T.L.Hayes, Battelle Columbus Laboratories, Columbus, OH 43221
##OWNER=NIST Mass Spectrometry Data Center
Collection (C) 2014 copyright by the U.S. Secretary of Commerce
on behalf of the United States of America. All rights reserved.
##CAS REGISTRY NO=34883-41-5
##$NIST MASS SPEC NO=80760
##MOLFORM=C12 H8 Cl2
##MW=222
##$NIST SOURCE=MSDC
##XUNITS=M/Z
##YUNITS=RELATIVE INTENSITY
##XFACTOR=1
##YFACTOR=1
##FIRSTX=34
##LASTX=228
##FIRSTY=14
##MAXX=228
##MINX=34
##MAXY=9999
##MINY=4
##NPOINTS=139
##PEAK TABLE=(XY..XY)
34,14 35,48 36,98 37,119
38,171 39,409 40,139 41,16
42,15 43,21 44,55 45,15
47,38 49,157 50,830 51,932
52,185 53,29 55,42 56,47
57,21 59,5 60,67 61,343
62,726 63,913 64,59 65,37
67,66 68,64 69,17 70,12
71,31 72,44 73,345 74,1069
75,2791 76,2559 77,483 78,99
79,38 80,506 81,239 82,20
83,18 84,145 85,304 86,400
87,380 88,74 89,75 91,15
93,2519 94,963 96,42 97,203
98,673 99,673 100,197 101,182
102,368 103,51 104,10 105,11
107,34 108,63 109,204 110,257
111,885 112,510 113,290 114,71
115,31 117,5 119,5 120,45
121,62 122,140 123,201 124,109
125,339 126,592 127,118 128,17
132,17 133,49 134,50 135,102
136,77 137,84 138,39 139,33
144,10 145,21 146,48 147,87
148,136 149,255 150,1713 151,2427
152,9999 153,1216 154,78 156,4
157,11 159,50 160,136 161,93
162,94 163,36 164,21 170,80
171,5 172,63 173,27 174,5
183,85 184,36 185,113 186,990
187,266 188,339 189,68 190,6
194,26 196,81 197,25 198,28
199,7 207,14 209,20 220,27
222,9234 223,1187 224,5474 225,699
226,888 227,116 228,4
##END=
