##TITLE=Phenanthrene, 9-ethyl-
##JCAMP-DX=4.24
##DATA TYPE=MASS SPECTRUM
##ORIGIN=G.A.M.S., PARIS, FRANCE.
##OWNER=NIST Mass Spectrometry Data Center
Collection (C) 2014 copyright by the U.S. Secretary of Commerce
on behalf of the United States of America. All rights reserved.
##CAS REGISTRY NO=3674-75-7
##$NIST MASS SPEC NO=35256
##MOLFORM=C16 H14
##MW=206
##$NIST SOURCE=MSDC
##XUNITS=M/Z
##YUNITS=RELATIVE INTENSITY
##XFACTOR=1
##YFACTOR=1
##FIRSTX=27
##LASTX=208
##FIRSTY=61
##MAXX=208
##MINX=27
##MAXY=9999
##MINY=16
##NPOINTS=98
##PEAK TABLE=(XY..XY)
27,61 29,25 38,22 39,122
40,38 41,25 43,33 50,77
51,138 52,16 53,16 57,25
62,99 63,277 64,22 65,33
67,38 68,22 69,16 70,38
71,16 74,133 75,333 76,666
77,83 81,83 82,199 83,330
86,61 87,216 88,999 89,1610
90,49 91,25 92,25 93,25
94,333 95,833 96,233 98,49
99,83 100,555 101,1277 102,499
103,944 104,22 110,25 111,25
113,44 115,77 119,16 122,22
123,16 124,22 125,83 126,38
127,38 128,22 139,144 140,16
149,38 150,172 151,233 152,216
153,33 160,22 162,33 163,233
164,133 165,1111 166,161 167,22
174,77 175,88 176,477 177,222
178,516 179,194 180,27 186,22
187,172 188,111 189,1666 190,666
191,9999 192,2166 193,172 197,16
199,77 200,166 201,127 202,666
203,533 204,211 205,294 206,6666
207,1055 208,94
##END=
