##TITLE=1-Hexene, 4-methyl-
##JCAMP-DX=4.24
##DATA TYPE=MASS SPECTRUM
##ORIGIN=Japan AIST/NIMC Database- Spectrum MS-NW-4827
##OWNER=NIST Mass Spectrometry Data Center
Collection (C) 2014 copyright by the U.S. Secretary of Commerce
on behalf of the United States of America. All rights reserved.
##CAS REGISTRY NO=3769-23-1
##$NIST MASS SPEC NO=231715
##MOLFORM=C7 H14
##MW=98
##$NIST SOURCE=MSDC
##XUNITS=M/Z
##YUNITS=RELATIVE INTENSITY
##XFACTOR=1
##YFACTOR=1
##FIRSTX=14
##LASTX=99
##FIRSTY=10
##MAXX=99
##MINX=14
##MAXY=9999
##MINY=10
##NPOINTS=51
##PEAK TABLE=(XY..XY)
14,10 15,119 26,119 27,1359
28,149 29,5279 30,119 31,20
37,40 38,129 39,1689 40,309
41,8549 42,849 43,409 44,20
45,20 49,10 50,80 51,139
52,60 53,429 54,199 55,2359
56,8429 57,9999 58,459 59,10
60,10 61,10 62,20 63,30
64,10 65,70 66,30 67,289
68,109 69,1069 70,1419 71,90
73,10 77,40 78,10 79,40
81,60 82,20 83,139 84,10
97,40 98,479 99,50
##END=
