##TITLE=1,1'-Biphenyl, 3,4',5-trichloro-
##JCAMP-DX=4.24
##DATA TYPE=MASS SPECTRUM
##ORIGIN=N. Todua, WGM, MMES
##OWNER=NIST Mass Spectrometry Data Center
Collection (C) 2014 copyright by the U.S. Secretary of Commerce
on behalf of the United States of America. All rights reserved.
##CAS REGISTRY NO=38444-88-1
##$NIST MASS SPEC NO=334698
##MOLFORM=C12 H7 Cl3
##MW=256
##$NIST SOURCE=MSDC
##XUNITS=M/Z
##YUNITS=RELATIVE INTENSITY
##XFACTOR=1
##YFACTOR=1
##FIRSTX=41
##LASTX=263
##FIRSTY=123
##MAXX=263
##MINX=41
##MAXY=9999
##MINY=62
##NPOINTS=108
##PEAK TABLE=(XY..XY)
41,123 43,62 44,185 46,62
47,123 48,123 49,185 50,554
51,369 52,123 55,123 56,123
57,62 60,123 61,308 62,492
63,369 68,123 72,123 73,308
74,738 75,1600 77,123 78,123
79,123 81,308 82,123 83,62
84,185 85,369 86,369 87,369
88,123 92,431 93,1108 94,492
96,123 97,369 98,554 99,492
100,246 101,308 107,123 108,123
109,246 110,985 111,677 112,246
115,123 116,123 120,123 121,123
122,246 123,308 124,123 125,308
126,246 128,431 129,431 130,246
132,123 133,123 134,123 135,123
136,308 137,123 138,123 145,62
146,123 147,123 148,246 149,492
150,1538 151,1292 152,185 159,123
160,308 162,123 163,62 170,185
172,185 183,185 184,308 185,492
186,4441 187,861 188,1795 189,308
194,185 196,185 198,185 207,185
219,185 220,492 221,123 222,431
223,123 224,123 232,62 254,185
256,9999 257,1477 258,9630 259,1415
260,3271 261,615 262,492 263,185
##END=
