##TITLE=1,1'-Biphenyl, 3,4,4'-Trichloro-
##JCAMP-DX=4.24
##DATA TYPE=MASS SPECTRUM
##ORIGIN=T.L.Hayes, Battelle Columbus Laboratories, Columbus, OH 43221
##OWNER=NIST Mass Spectrometry Data Center
Collection (C) 2014 copyright by the U.S. Secretary of Commerce
on behalf of the United States of America. All rights reserved.
##CAS REGISTRY NO=38444-90-5
##$NIST MASS SPEC NO=80802
##MOLFORM=C12 H7 Cl3
##MW=256
##$NIST SOURCE=MSDC
##XUNITS=M/Z
##YUNITS=RELATIVE INTENSITY
##XFACTOR=1
##YFACTOR=1
##FIRSTX=34
##LASTX=263
##FIRSTY=43
##MAXX=263
##MINX=34
##MAXY=9999
##MINY=9
##NPOINTS=127
##PEAK TABLE=(XY..XY)
34,43 35,121 36,240 37,191
38,259 39,316 40,455 41,39
43,74 44,101 47,58 48,9
49,259 50,1145 51,819 52,44
55,72 56,65 57,81 60,108
61,710 62,1090 63,609 64,24
65,20 67,53 68,18 71,29
72,139 73,846 74,1977 75,4112
76,162 77,241 78,65 79,164
80,380 81,141 82,10 83,11
84,295 85,501 86,639 87,450
88,65 89,45 91,85 92,1274
93,3308 94,966 96,78 97,530
98,937 99,949 100,211 101,335
102,53 107,20 108,142 109,397
110,2036 111,1527 112,340 113,177
114,52 115,38 116,34 117,11
120,66 121,89 122,218 123,409
124,135 125,309 126,159 127,27
128,874 129,898 130,298 131,16
132,26 133,75 134,64 135,204
136,440 137,96 138,104 145,15
146,71 147,147 148,144 149,616
150,2819 151,2152 152,238 159,82
160,300 161,76 162,76 170,87
171,9 172,46 183,38 184,206
185,471 186,7601 187,1046 188,2356
189,252 194,46 195,12 196,66
197,55 198,30 220,402 221,118
222,311 223,72 224,41 256,9999
257,1309 258,9501 259,1193 260,3065
261,340 262,297 263,24
##END=
