##TITLE=1,1'-Biphenyl, 3,3',5-trichloro-
##JCAMP-DX=4.24
##DATA TYPE=MASS SPECTRUM
##ORIGIN=N. Todua, WGM, MMES
##OWNER=NIST Mass Spectrometry Data Center
Collection (C) 2014 copyright by the U.S. Secretary of Commerce
on behalf of the United States of America. All rights reserved.
##CAS REGISTRY NO=38444-87-0
##$NIST MASS SPEC NO=334695
##MOLFORM=C12 H7 Cl3
##MW=256
##$NIST SOURCE=MSDC
##XUNITS=M/Z
##YUNITS=RELATIVE INTENSITY
##XFACTOR=1
##YFACTOR=1
##FIRSTX=41
##LASTX=263
##FIRSTY=189
##MAXX=263
##MINX=41
##MAXY=9999
##MINY=63
##NPOINTS=106
##PEAK TABLE=(XY..XY)
41,189 43,189 44,189 46,189
48,189 49,252 50,631 51,505
52,189 55,189 56,189 60,189
61,442 62,631 63,442 64,126
66,63 67,126 68,126 72,126
73,442 74,1136 75,1882 77,189
79,189 81,315 82,252 83,126
84,189 85,379 86,505 87,442
88,189 89,189 93,1325 94,568
96,189 97,379 98,631 99,631
100,379 101,379 107,189 108,189
109,315 110,1072 111,883 113,315
115,189 116,189 120,189 121,189
122,315 123,379 124,252 125,379
126,252 128,442 129,442 130,315
135,315 136,379 137,189 138,189
139,126 145,189 146,189 147,252
148,252 149,505 150,1819 151,1577
152,379 158,63 159,189 160,379
161,189 162,189 170,189 172,189
183,189 184,315 185,568 186,5162
187,946 188,1756 189,442 194,252
195,252 196,252 207,63 219,63
220,568 221,315 222,442 223,252
224,252 254,126 256,9620 257,1514
258,9999 259,1514 260,3459 261,568
262,505 263,189
##END=
