##TITLE=Heptane, 3,3-dimethyl-
##JCAMP-DX=4.24
##DATA TYPE=MASS SPECTRUM
##ORIGIN=NIST Mass Spectrometry Data Center, 1990.
##OWNER=NIST Mass Spectrometry Data Center
Collection (C) 2014 copyright by the U.S. Secretary of Commerce
on behalf of the United States of America. All rights reserved.
##CAS REGISTRY NO=4032-86-4
##$NIST MASS SPEC NO=114058
##MOLFORM=C9 H20
##MW=128
##$NIST SOURCE=MSDC
##XUNITS=M/Z
##YUNITS=RELATIVE INTENSITY
##XFACTOR=1
##YFACTOR=1
##FIRSTX=27
##LASTX=113
##FIRSTY=1925
##MAXX=113
##MINX=27
##MAXY=9999
##MINY=134
##NPOINTS=25
##PEAK TABLE=(XY..XY)
27,1925 28,972 29,2506 39,2129
41,5202 42,974 43,6916 44,285
51,237 52,134 53,791 55,3716
56,1451 57,9864 58,388 65,146
67,292 69,927 70,4744 71,9999
72,582 98,998 99,2380 100,208
113,534
##END=
