##TITLE=Octane, 3,3-dimethyl-
##JCAMP-DX=4.24
##DATA TYPE=MASS SPECTRUM
##ORIGIN=NIST Mass Spectrometry Data Center, 1990.
##OWNER=NIST Mass Spectrometry Data Center
Collection (C) 2014 copyright by the U.S. Secretary of Commerce
on behalf of the United States of America. All rights reserved.
##CAS REGISTRY NO=4110-44-5
##$NIST MASS SPEC NO=114124
##MOLFORM=C10 H22
##MW=142
##$NIST SOURCE=MSDC
##XUNITS=M/Z
##YUNITS=RELATIVE INTENSITY
##XFACTOR=1
##YFACTOR=1
##FIRSTX=14
##LASTX=128
##FIRSTY=36
##MAXX=128
##MINX=14
##MAXY=9999
##MINY=25
##NPOINTS=40
##PEAK TABLE=(XY..XY)
14,36 15,30 27,750 28,76
29,1170 30,26 39,904 41,2602
42,567 43,4124 44,177 50,26
51,88 52,47 53,388 54,26
55,1968 56,1141 57,4080 58,181
65,63 66,26 67,155 68,66
69,570 70,3730 71,9999 72,586
77,49 79,33 83,78 84,183
85,811 86,54 97,79 112,764
113,1610 114,152 127,273 128,25
##END=
