##TITLE=1,3-Dioxan-5-ol
##JCAMP-DX=4.24
##DATA TYPE=MASS SPECTRUM
##ORIGIN=Chuck Anderson, Aldrich Chemical Co.
##OWNER=NIST Mass Spectrometry Data Center
Collection (C) 2014 copyright by the U.S. Secretary of Commerce
on behalf of the United States of America. All rights reserved.
##CAS REGISTRY NO=4740-78-7
##$NIST MASS SPEC NO=108205
##MOLFORM=C4 H8 O3
##MW=104
##$NIST SOURCE=MSDC
##XUNITS=M/Z
##YUNITS=RELATIVE INTENSITY
##XFACTOR=1
##YFACTOR=1
##FIRSTX=13
##LASTX=103
##FIRSTY=15
##MAXX=103
##MINX=13
##MAXY=9999
##MINY=14
##NPOINTS=35
##PEAK TABLE=(XY..XY)
13,15 14,421 15,3713 16,202
17,14 18,118 19,1575 26,466
27,1920 28,928 29,6666 30,520
31,5579 32,87 38,73 39,191
40,17 41,124 42,1127 43,6376
44,6013 45,9999 46,198 47,317
55,165 56,190 57,729 58,241
71,251 72,1249 73,8115 74,2898
75,928 86,112 103,629
##END=
