##TITLE=7H-Furo[3,2-g][1]benzopyran-7-one, 4-methoxy-
##JCAMP-DX=4.24
##DATA TYPE=MASS SPECTRUM
##ORIGIN=NIST Mass Spectrometry Data Center, 1998.
##OWNER=NIST Mass Spectrometry Data Center
Collection (C) 2014 copyright by the U.S. Secretary of Commerce
on behalf of the United States of America. All rights reserved.
##CAS REGISTRY NO=484-20-8
##$NIST MASS SPEC NO=290666
##MOLFORM=C12 H8 O4
##MW=216
##$NIST SOURCE=MSDC
##XUNITS=M/Z
##YUNITS=RELATIVE INTENSITY
##XFACTOR=1
##YFACTOR=1
##FIRSTX=14
##LASTX=219
##FIRSTY=10
##MAXX=219
##MINX=14
##MAXY=9999
##MINY=10
##NPOINTS=129
##PEAK TABLE=(XY..XY)
14,10 15,150 25,10 26,40
27,40 29,270 30,10 31,10
36,10 37,190 38,550 39,420
40,20 41,100 42,20 43,80
44,110 48,10 49,180 50,1110
51,2060 52,190 53,440 54,40
55,30 57,10 58,60 60,20
61,300 62,890 63,1670 65,240
66,470 67,110 68,50 69,490
70,20 71,10 73,130 74,970
75,930 76,350 77,540 78,180
79,480 80,90 81,20 82,10
84,30 85,180 86,440 87,760
88,610 89,2560 90,270 91,70
92,30 93,110 94,130 95,90
96,10 97,40 98,350 99,190
100,240 101,390 102,360 103,230
104,130 105,30 106,20 107,80
108,410 110,20 111,10 113,20
114,10 115,60 116,360 117,400
118,210 119,130 120,10 121,20
122,10 123,10 127,20 128,40
129,340 130,130 131,630 132,160
133,20 134,10 135,150 136,20
141,10 142,10 143,40 144,310
145,4780 146,630 147,120 148,10
156,20 157,240 158,150 159,280
160,120 161,20 170,10 171,80
173,9849 174,1300 175,170 176,10
185,60 186,20 187,620 188,1680
189,210 190,20 201,3540 202,430
203,50 216,9999 217,1360 218,170
219,10
##END=
