##TITLE=2H-1-Benzopyran-2-one, 5,7-dimethoxy-
##JCAMP-DX=4.24
##DATA TYPE=MASS SPECTRUM
##ORIGIN=Japan AIST/NIMC Database- Spectrum MS-NW-8243
##OWNER=NIST Mass Spectrometry Data Center
Collection (C) 2014 copyright by the U.S. Secretary of Commerce
on behalf of the United States of America. All rights reserved.
##CAS REGISTRY NO=487-06-9
##$NIST MASS SPEC NO=235144
##MOLFORM=C11 H10 O4
##MW=206
##$NIST SOURCE=MSDC
##XUNITS=M/Z
##YUNITS=RELATIVE INTENSITY
##XFACTOR=1
##YFACTOR=1
##FIRSTX=14
##LASTX=209
##FIRSTY=10
##MAXX=209
##MINX=14
##MAXY=9999
##MINY=10
##NPOINTS=113
##PEAK TABLE=(XY..XY)
14,10 15,189 18,10 26,40
27,60 28,60 29,50 31,10
37,70 38,339 39,249 40,20
41,80 42,20 43,99 44,40
45,30 46,40 47,10 49,20
50,299 51,369 52,70 53,229
54,70 55,60 57,10 58,10
59,219 60,50 61,129 62,249
63,549 64,289 65,219 66,269
67,60 68,30 69,759 70,30
73,30 74,169 75,199 76,449
77,509 78,109 79,289 80,30
81,40 82,30 83,60 85,60
86,70 87,90 88,70 89,649
90,90 91,229 92,629 93,90
94,70 95,40 98,10 103,119
104,119 105,159 106,60 107,329
108,30 109,40 111,40 116,20
117,30 118,40 119,269 120,449
121,279 122,50 125,20 131,20
132,70 133,319 134,90 135,1719
136,169 137,99 145,20 146,20
147,199 148,209 149,399 150,90
151,10 160,10 161,60 162,40
163,3699 164,469 165,99 166,10
175,119 176,40 177,429 178,7259
179,789 180,80 190,20 191,20
205,40 206,9999 207,1219 208,149
209,10
##END=
