##TITLE=.alpha.-Bisabolol
##JCAMP-DX=4.24
##DATA TYPE=MASS SPECTRUM
##ORIGIN=N.W. Davies, Centr. Sci. Lab., Univ. Tasmania, Hobart, Australia
##OWNER=NIST Mass Spectrometry Data Center
Collection (C) 2014 copyright by the U.S. Secretary of Commerce
on behalf of the United States of America. All rights reserved.
##CAS REGISTRY NO=515-69-5
##$NIST MASS SPEC NO=107126
##MOLFORM=C15 H26 O
##MW=222
##$NIST SOURCE=MSDC
##XUNITS=M/Z
##YUNITS=RELATIVE INTENSITY
##XFACTOR=1
##YFACTOR=1
##FIRSTX=27
##LASTX=205
##FIRSTY=2050
##MAXX=205
##MINX=27
##MAXY=9999
##MINY=100
##NPOINTS=76
##PEAK TABLE=(XY..XY)
27,2050 28,520 29,1890 31,190
38,100 39,2610 40,610 41,8930
42,660 43,9999 44,250 45,530
50,100 51,480 52,250 53,2170
54,350 55,3530 56,720 57,750
58,870 59,330 63,140 65,650
66,290 67,2810 68,1070 69,8030
70,760 71,2580 72,170 77,1430
78,340 79,2040 80,750 81,1570
82,950 83,680 84,190 85,260
91,1310 92,740 93,3850 95,2760
96,450 97,250 105,1100 106,290
107,1270 108,520 109,5000 110,580
111,350 117,100 119,3970 120,690
121,1890 122,600 123,250 125,160
127,380 133,450 134,650 135,470
136,150 137,240 139,440 143,130
147,320 148,270 149,120 161,560
162,130 189,230 204,1360 205,290
##END=
