##TITLE=Phenol, 2-methyl, 4,6-dinitro-
##JCAMP-DX=4.24
##DATA TYPE=MASS SPECTRUM
##ORIGIN=NIST Mass Spectrometry Data Center, 1990.
##OWNER=NIST Mass Spectrometry Data Center
Collection (C) 2014 copyright by the U.S. Secretary of Commerce
on behalf of the United States of America. All rights reserved.
##CAS REGISTRY NO=534-52-1
##$NIST MASS SPEC NO=114960
##MOLFORM=C7 H6 N2 O5
##MW=198
##$NIST SOURCE=MSDC
##XUNITS=M/Z
##YUNITS=RELATIVE INTENSITY
##XFACTOR=1
##YFACTOR=1
##FIRSTX=14
##LASTX=200
##FIRSTY=80
##MAXX=200
##MINX=14
##MAXY=9999
##MINY=31
##NPOINTS=73
##PEAK TABLE=(XY..XY)
14,80 16,70 18,211 26,251
27,1186 28,109 29,478 30,3289
32,31 37,339 38,814 39,3271
40,551 41,279 42,145 43,746
44,290 45,114 46,296 50,2872
51,6463 52,2942 53,4350 54,415
55,365 56,131 61,364 62,931
63,1243 64,796 65,1942 66,1545
67,2387 68,429 69,495 73,234
74,1158 75,908 76,1246 77,2848
78,1206 79,754 80,289 81,113
82,150 86,124 87,148 88,89
90,189 91,261 92,332 93,2112
94,515 96,108 104,698 105,4433
106,2514 107,967 108,113 121,5231
122,501 134,395 135,125 151,160
152,775 168,2661 169,238 180,206
181,136 182,272 198,9999 199,848
200,80
##END=
