##TITLE=3,4,5-Trichloro-1,1'-biphenyl
##JCAMP-DX=4.24
##DATA TYPE=MASS SPECTRUM
##ORIGIN=N. Todua, WGM, MMES
##OWNER=NIST Mass Spectrometry Data Center
Collection (C) 2014 copyright by the U.S. Secretary of Commerce
on behalf of the United States of America. All rights reserved.
##CAS REGISTRY NO=53555-66-1
##$NIST MASS SPEC NO=334697
##MOLFORM=C12 H7 Cl3
##MW=256
##$NIST SOURCE=MSDC
##XUNITS=M/Z
##YUNITS=RELATIVE INTENSITY
##XFACTOR=1
##YFACTOR=1
##FIRSTX=44
##LASTX=263
##FIRSTY=183
##MAXX=263
##MINX=44
##MAXY=9999
##MINY=61
##NPOINTS=127
##PEAK TABLE=(XY..XY)
44,183 47,122 49,122 50,377
51,438 52,245 55,122 56,122
60,122 61,245 62,377 63,245
66,122 67,122 68,122 72,122
73,183 74,561 75,805 76,306
77,183 78,122 79,122 80,306
81,183 84,306 85,245 86,306
87,245 88,183 89,183 91,183
93,989 94,438 95,183 96,183
97,306 98,561 99,377 100,183
101,183 102,245 103,183 107,183
108,245 109,306 110,866 111,622
112,245 113,183 114,183 115,183
116,183 117,183 119,183 120,183
121,245 122,245 123,306 124,183
125,245 126,245 127,183 128,377
129,377 130,245 131,183 133,245
134,183 135,183 136,183 143,183
144,183 145,183 146,183 147,245
148,183 149,438 150,1549 151,1121
152,245 158,183 159,183 160,245
161,183 168,183 169,183 171,183
172,183 173,183 181,183 182,183
183,183 184,306 185,499 186,4903
187,866 188,1672 189,306 193,61
194,183 195,183 196,183 204,183
205,183 206,183 207,61 217,183
218,183 219,183 220,561 221,245
222,499 223,183 224,183 230,183
232,183 253,183 254,183 256,9999
257,1488 258,8878 259,1305 260,3170
261,499 262,499 263,183
##END=
