##TITLE=3-Heptanol, 3-methyl-
##JCAMP-DX=4.24
##DATA TYPE=MASS SPECTRUM
##ORIGIN=CONTINENTAL OIL COMPANY, PONCA CITY, OKLAHOMA, USA
##OWNER=NIST Mass Spectrometry Data Center
Collection (C) 2014 copyright by the U.S. Secretary of Commerce
on behalf of the United States of America. All rights reserved.
##CAS REGISTRY NO=5582-82-1
##$NIST MASS SPEC NO=27545
##MOLFORM=C8 H18 O
##MW=130
##$NIST SOURCE=MSDC
##XUNITS=M/Z
##YUNITS=RELATIVE INTENSITY
##XFACTOR=1
##YFACTOR=1
##FIRSTX=12
##LASTX=130
##FIRSTY=4
##MAXX=130
##MINX=12
##MAXY=9999
##MINY=1
##NPOINTS=79
##PEAK TABLE=(XY..XY)
12,4 13,21 14,84 15,607
16,32 17,38 18,118 19,59
24,5 25,12 26,197 27,2265
28,659 29,2153 30,64 31,693
32,62 36,4 37,27 38,66
39,1018 40,156 41,2041 42,361
43,3505 44,138 45,2839 46,65
47,13 49,17 50,49 51,99
52,47 53,282 54,94 55,4117
56,306 57,1268 58,276 59,1309
60,42 61,9 63,18 65,33
66,17 67,86 68,63 69,335
70,530 71,412 72,172 73,9999
74,438 75,41 77,26 79,26
81,36 82,43 83,827 84,72
85,46 86,8 87,101 91,4
93,4 94,4 95,8 97,35
99,5 101,2158 102,143 103,10
105,10 108,10 112,107 113,13
115,710 116,57 130,1
##END=
