##TITLE=Pentane, 3,3-dimethyl-
##JCAMP-DX=4.24
##DATA TYPE=MASS SPECTRUM
##OWNER=NIST Mass Spectrometry Data Center
Collection (C) 2014 copyright by the U.S. Secretary of Commerce
on behalf of the United States of America. All rights reserved.
##CAS REGISTRY NO=562-49-2
##$NIST MASS SPEC NO=19768
##MOLFORM=C7 H16
##MW=100
##$NIST SOURCE=MSDC
##XUNITS=M/Z
##YUNITS=RELATIVE INTENSITY
##XFACTOR=1
##YFACTOR=1
##FIRSTX=1
##LASTX=100
##FIRSTY=30
##MAXX=100
##MINX=1
##MAXY=9999
##MINY=10
##NPOINTS=53
##PEAK TABLE=(XY..XY)
1,30 2,10 12,10 13,10
14,10 15,220 16,10 25,10
26,100 27,1752 28,220 29,1842
30,40 37,10 38,30 39,931
40,120 41,1982 42,320 43,9999
44,340 45,10 50,20 51,60
52,30 53,210 54,50 55,1161
56,130 57,510 58,20 62,10
63,10 64,10 65,20 66,10
67,40 68,10 69,110 70,1892
71,6246 72,350 73,10 77,10
78,10 79,10 81,10 83,10
84,60 85,1621 86,110 87,10
100,10
##END=
