##TITLE=Allyl Isothiocyanate
##JCAMP-DX=4.24
##DATA TYPE=MASS SPECTRUM
##ORIGIN=NIST Mass Spectrometry Data Center, 1998.
##OWNER=NIST Mass Spectrometry Data Center
Collection (C) 2014 copyright by the U.S. Secretary of Commerce
on behalf of the United States of America. All rights reserved.
##CAS REGISTRY NO=57-06-7
##$NIST MASS SPEC NO=290850
##MOLFORM=C4 H5 N S
##MW=99
##$NIST SOURCE=MSDC
##XUNITS=M/Z
##YUNITS=RELATIVE INTENSITY
##XFACTOR=1
##YFACTOR=1
##FIRSTX=12
##LASTX=102
##FIRSTY=10
##MAXX=102
##MINX=12
##MAXY=9999
##MINY=10
##NPOINTS=66
##PEAK TABLE=(XY..XY)
12,10 13,10 14,20 15,60
24,10 25,60 26,340 27,510
28,150 29,20 30,10 31,10
32,330 33,30 34,20 36,60
37,500 38,970 39,6189 40,770
41,6209 42,220 43,10 44,640
45,1100 46,230 47,70 48,10
50,40 51,160 52,150 53,20
54,180 55,20 56,40 57,110
58,610 59,600 60,280 61,30
62,40 63,50 64,80 65,10
66,30 67,230 68,70 69,180
70,820 71,1100 72,3910 73,220
74,180 75,10 82,20 83,40
84,100 85,10 94,30 95,10
96,30 98,910 99,9999 100,670
101,560 102,30
##END=
