##TITLE=3,3',4,4,',5-Pentachloro-1,1'-biphenyl
##JCAMP-DX=4.24
##DATA TYPE=MASS SPECTRUM
##ORIGIN=Organic Synthesis Lab, MSU, Moscow.TRC 1260
##OWNER=NIST Mass Spectrometry Data Center
Collection (C) 2014 copyright by the U.S. Secretary of Commerce
on behalf of the United States of America. All rights reserved.
##CAS REGISTRY NO=57465-28-8
##$NIST MASS SPEC NO=326637
##MOLFORM=C12 H5 Cl5
##MW=324
##$NIST SOURCE=MSDC
##XUNITS=M/Z
##YUNITS=RELATIVE INTENSITY
##XFACTOR=1
##YFACTOR=1
##FIRSTX=43
##LASTX=334
##FIRSTY=14
##MAXX=334
##MINX=43
##MAXY=9999
##MINY=8
##NPOINTS=142
##PEAK TABLE=(XY..XY)
43,14 44,65 47,35 49,58
50,127 51,50 55,18 56,8
60,37 61,175 62,105 63,54
67,21 71,14 72,76 73,199
74,394 75,126 79,36 80,11
83,20 84,154 85,178 86,153
87,57 90,14 92,235 93,90
94,14 95,15 96,63 97,159
98,265 99,179 100,25 103,8
106,10 107,47 108,127 109,635
110,405 111,148 112,14 114,24
115,25 119,26 120,50 121,87
122,105 123,96 124,19 127,644
128,643 129,218 131,23 132,69
133,113 134,66 135,76 136,14
137,22 143,30 144,163 145,237
146,178 147,159 148,128 149,157
150,16 156,20 157,47 158,37
159,44 160,32 161,17 162,133
163,184 164,152 165,44 167,12
168,16 169,67 170,80 171,43
172,55 181,32 182,77 183,181
184,758 185,176 186,253 187,31
192,16 193,24 194,42 195,27
196,36 197,9 204,59 205,21
206,68 207,20 208,20 216,13
217,50 218,352 219,320 220,275
221,203 222,49 223,25 228,31
230,33 232,10 252,26 253,72
254,2386 255,343 256,2159 257,321
258,716 259,109 260,92 261,12
288,93 289,27 290,152 291,38
292,84 293,17 294,24 324,6077
325,820 326,9999 327,1269 328,6537
329,827 330,2034 331,279 332,297
333,34 334,16
##END=
