##TITLE=3-Pentanol
##JCAMP-DX=4.24
##DATA TYPE=MASS SPECTRUM
##ORIGIN=NIST Mass Spectrometry Data Center, 1990.
##OWNER=NIST Mass Spectrometry Data Center
Collection (C) 2014 copyright by the U.S. Secretary of Commerce
on behalf of the United States of America. All rights reserved.
##CAS REGISTRY NO=584-02-1
##$NIST MASS SPEC NO=118813
##MOLFORM=C5 H12 O
##MW=88
##$NIST SOURCE=MSDC
##XUNITS=M/Z
##YUNITS=RELATIVE INTENSITY
##XFACTOR=1
##YFACTOR=1
##FIRSTX=12
##LASTX=88
##FIRSTY=9
##MAXX=88
##MINX=12
##MAXY=9999
##MINY=5
##NPOINTS=48
##PEAK TABLE=(XY..XY)
12,9 14,55 15,239 17,5
18,6 19,43 25,25 26,322
27,1447 28,458 29,1455 30,5
31,4335 32,59 33,22 37,33
38,106 39,622 40,22 41,2567
42,385 43,653 44,122 45,302
46,11 49,10 50,41 51,43
52,18 53,88 54,10 55,338
56,10 57,717 58,1164 59,9999
60,321 61,32 62,13 63,7
65,8 67,8 69,27 70,35
71,37 86,9 87,40 88,14
##END=
