##TITLE=Octane, 3-ethyl-
##JCAMP-DX=4.24
##DATA TYPE=MASS SPECTRUM
##ORIGIN=D.HENNEBERG, MAX-PLANCK INSTITUTE, MULHEIM, WEST GERMANY
##OWNER=NIST Mass Spectrometry Data Center
Collection (C) 2014 copyright by the U.S. Secretary of Commerce
on behalf of the United States of America. All rights reserved.
##CAS REGISTRY NO=5881-17-4
##$NIST MASS SPEC NO=61818
##MOLFORM=C10 H22
##MW=142
##$NIST SOURCE=MSDC
##XUNITS=M/Z
##YUNITS=RELATIVE INTENSITY
##XFACTOR=1
##YFACTOR=1
##FIRSTX=24
##LASTX=143
##FIRSTY=6
##MAXX=143
##MINX=24
##MAXY=9999
##MINY=4
##NPOINTS=49
##PEAK TABLE=(XY..XY)
24,6 25,19 26,108 27,1395
29,2528 30,54 38,14 39,840
40,27 41,3289 42,959 43,9999
44,226 45,10 50,9 51,34
52,12 53,184 54,95 55,1495
56,730 57,9217 58,376 59,8
63,15 65,29 66,4 67,75
68,48 69,325 70,2068 71,7442
72,401 73,6 77,8 79,9
82,91 83,298 84,238 85,152
86,11 97,37 98,87 99,24
112,1336 113,714 114,58 142,43
143,5
##END=
