##TITLE=Heptane, 4-methyl-
##JCAMP-DX=4.24
##DATA TYPE=MASS SPECTRUM
##ORIGIN=NIST Mass Spectrometry Data Center, 1990.
##OWNER=NIST Mass Spectrometry Data Center
Collection (C) 2014 copyright by the U.S. Secretary of Commerce
on behalf of the United States of America. All rights reserved.
##CAS REGISTRY NO=589-53-7
##$NIST MASS SPEC NO=113916
##MOLFORM=C8 H18
##MW=114
##$NIST SOURCE=MSDC
##XUNITS=M/Z
##YUNITS=RELATIVE INTENSITY
##XFACTOR=1
##YFACTOR=1
##FIRSTX=15
##LASTX=115
##FIRSTY=92
##MAXX=115
##MINX=15
##MAXY=9999
##MINY=54
##NPOINTS=30
##PEAK TABLE=(XY..XY)
15,92 27,1873 28,492 29,1685
39,2099 40,447 41,4100 42,2134
43,9999 44,377 50,71 51,163
52,64 53,402 54,64 55,2234
56,448 57,1863 58,87 65,77
67,112 70,6825 71,6042 72,347
84,497 85,551 98,139 99,106
114,480 115,54
##END=
