##TITLE=3-Hexanone
##JCAMP-DX=4.24
##DATA TYPE=MASS SPECTRUM
##ORIGIN=D.HENNEBERG, MAX-PLANCK INSTITUTE, MULHEIM, WEST GERMANY
##OWNER=NIST Mass Spectrometry Data Center
Collection (C) 2014 copyright by the U.S. Secretary of Commerce
on behalf of the United States of America. All rights reserved.
##CAS REGISTRY NO=589-38-8
##$NIST MASS SPEC NO=61741
##MOLFORM=C6 H12 O
##MW=100
##$NIST SOURCE=MSDC
##XUNITS=M/Z
##YUNITS=RELATIVE INTENSITY
##XFACTOR=1
##YFACTOR=1
##FIRSTX=21
##LASTX=102
##FIRSTY=3
##MAXX=102
##MINX=21
##MAXY=9999
##MINY=3
##NPOINTS=54
##PEAK TABLE=(XY..XY)
21,3 23,10 24,9 26,444
27,3649 28,410 29,5059 30,114
31,75 33,6 36,5 37,78
38,131 39,1248 40,151 41,2583
42,658 43,9999 44,308 45,34
49,8 50,57 51,54 52,40
53,162 54,36 55,359 56,196
57,8341 58,266 59,38 62,10
63,10 65,11 67,54 68,8
69,61 70,69 71,5074 72,540
73,23 77,6 79,5 81,4
82,6 83,10 84,4 85,223
86,11 98,3 99,5 100,2353
101,260 102,10
##END=
