##TITLE=4-Octanone
##JCAMP-DX=4.24
##DATA TYPE=MASS SPECTRUM
##ORIGIN=NIST Mass Spectrometry Data Center, 1990.
##OWNER=NIST Mass Spectrometry Data Center
Collection (C) 2014 copyright by the U.S. Secretary of Commerce
on behalf of the United States of America. All rights reserved.
##CAS REGISTRY NO=589-63-9
##$NIST MASS SPEC NO=114358
##MOLFORM=C8 H16 O
##MW=128
##$NIST SOURCE=MSDC
##XUNITS=M/Z
##YUNITS=RELATIVE INTENSITY
##XFACTOR=1
##YFACTOR=1
##FIRSTX=14
##LASTX=129
##FIRSTY=60
##MAXX=129
##MINX=14
##MAXY=9999
##MINY=19
##NPOINTS=43
##PEAK TABLE=(XY..XY)
14,60 15,318 18,61 26,419
27,4317 28,1491 29,3630 30,93
31,123 32,19 37,51 38,231
39,2247 40,19 41,6606 42,1524
43,9999 44,392 45,71 50,64
51,109 52,63 53,263 54,51
55,937 56,19 57,8732 58,4632
59,187 67,105 69,99 71,7322
72,306 81,45 83,59 85,5435
86,1962 87,131 99,276 100,75
113,119 128,1732 129,174
##END=
