##TITLE=Hexane, 3-methyl-
##JCAMP-DX=4.24
##DATA TYPE=MASS SPECTRUM
##ORIGIN=Japan AIST/NIMC Database- Spectrum MS-NW-3059
##OWNER=NIST Mass Spectrometry Data Center
Collection (C) 2014 copyright by the U.S. Secretary of Commerce
on behalf of the United States of America. All rights reserved.
##CAS REGISTRY NO=589-34-4
##$NIST MASS SPEC NO=231738
##MOLFORM=C7 H16
##MW=100
##$NIST SOURCE=MSDC
##XUNITS=M/Z
##YUNITS=RELATIVE INTENSITY
##XFACTOR=1
##YFACTOR=1
##FIRSTX=15
##LASTX=101
##FIRSTY=60
##MAXX=101
##MINX=15
##MAXY=9999
##MINY=10
##NPOINTS=40
##PEAK TABLE=(XY..XY)
15,60 26,70 27,1279 28,40
29,2469 30,60 37,10 38,60
39,909 40,149 41,3669 42,919
43,9999 44,349 50,40 51,70
52,20 53,179 54,60 55,1499
56,3929 57,5279 58,229 63,10
65,20 66,10 67,40 68,10
69,199 70,4649 71,5829 72,309
83,60 84,109 85,569 86,30
98,60 99,10 100,399 101,30
##END=
