##TITLE=2-Pentanol
##JCAMP-DX=4.24
##DATA TYPE=MASS SPECTRUM
##ORIGIN=NIST Mass Spectrometry Data Center, 1990.
##OWNER=NIST Mass Spectrometry Data Center
Collection (C) 2014 copyright by the U.S. Secretary of Commerce
on behalf of the United States of America. All rights reserved.
##CAS REGISTRY NO=6032-29-7
##$NIST MASS SPEC NO=114384
##MOLFORM=C5 H12 O
##MW=88
##$NIST SOURCE=MSDC
##XUNITS=M/Z
##YUNITS=RELATIVE INTENSITY
##XFACTOR=1
##YFACTOR=1
##FIRSTX=14
##LASTX=87
##FIRSTY=73
##MAXX=87
##MINX=14
##MAXY=9999
##MINY=33
##NPOINTS=40
##PEAK TABLE=(XY..XY)
14,73 15,376 16,75 18,78
19,253 26,223 27,1468 28,347
29,1140 30,73 31,653 32,55
37,69 38,155 39,1057 40,191
41,995 42,667 43,2308 44,1104
45,9999 46,227 50,70 51,88
52,42 53,130 54,42 55,2491
56,110 57,141 58,78 67,33
69,59 70,345 71,107 72,33
73,830 74,42 86,53 87,48
##END=
