##TITLE=4,4'-Dimethylbiphenyl
##JCAMP-DX=4.24
##DATA TYPE=MASS SPECTRUM
##ORIGIN=Japan AIST/NIMC Database- Spectrum MS-NW-4599
##OWNER=NIST Mass Spectrometry Data Center
Collection (C) 2014 copyright by the U.S. Secretary of Commerce
on behalf of the United States of America. All rights reserved.
##CAS REGISTRY NO=613-33-2
##$NIST MASS SPEC NO=228755
##MOLFORM=C14 H14
##MW=182
##$NIST SOURCE=MSDC
##XUNITS=M/Z
##YUNITS=RELATIVE INTENSITY
##XFACTOR=1
##YFACTOR=1
##FIRSTX=15
##LASTX=184
##FIRSTY=10
##MAXX=184
##MINX=15
##MAXY=9999
##MINY=10
##NPOINTS=88
##PEAK TABLE=(XY..XY)
15,10 26,10 27,90 28,20
29,10 38,30 39,249 40,20
41,50 42,10 43,20 50,90
51,179 52,40 53,50 56,10
57,20 61,20 62,80 63,249
64,109 65,179 66,20 69,30
70,10 74,70 75,90 76,279
77,219 78,60 79,20 81,20
82,129 83,129 85,10 86,30
87,50 88,60 89,489 90,549
91,549 92,30 98,20 99,20
101,20 102,60 103,40 104,20
105,40 113,30 114,10 115,359
116,60 117,10 126,50 127,99
128,229 129,70 138,10 139,159
140,30 141,209 142,50 143,10
150,30 151,109 152,609 153,239
154,50 155,60 156,10 162,10
163,70 164,119 165,2189 166,1089
167,3529 168,509 169,30 176,50
177,50 178,279 179,229 180,169
181,2649 182,9999 183,1499 184,109
##END=
