##TITLE=Pentane, 3-ethyl-
##JCAMP-DX=4.24
##DATA TYPE=MASS SPECTRUM
##ORIGIN=Japan AIST/NIMC Database- Spectrum MS-NW-3793
##OWNER=NIST Mass Spectrometry Data Center
Collection (C) 2014 copyright by the U.S. Secretary of Commerce
on behalf of the United States of America. All rights reserved.
##CAS REGISTRY NO=617-78-7
##$NIST MASS SPEC NO=231049
##MOLFORM=C7 H16
##MW=100
##$NIST SOURCE=MSDC
##XUNITS=M/Z
##YUNITS=RELATIVE INTENSITY
##XFACTOR=1
##YFACTOR=1
##FIRSTX=15
##LASTX=101
##FIRSTY=40
##MAXX=101
##MINX=15
##MAXY=9999
##MINY=10
##NPOINTS=35
##PEAK TABLE=(XY..XY)
15,40 26,60 27,989 28,50
29,1429 30,30 37,10 38,40
39,639 40,80 41,1609 42,679
43,9999 44,349 50,30 51,50
52,20 53,139 54,40 55,1489
56,359 57,449 58,20 62,10
63,10 65,10 67,20 69,80
70,4839 71,5059 72,279 84,20
85,40 100,169 101,10
##END=
