##TITLE=Hexane, 3-ethyl-
##JCAMP-DX=4.24
##DATA TYPE=MASS SPECTRUM
##OWNER=NIST Mass Spectrometry Data Center
Collection (C) 2014 copyright by the U.S. Secretary of Commerce
on behalf of the United States of America. All rights reserved.
##CAS REGISTRY NO=619-99-8
##$NIST MASS SPEC NO=1748
##MOLFORM=C8 H18
##MW=114
##$NIST SOURCE=MSDC
##XUNITS=M/Z
##YUNITS=RELATIVE INTENSITY
##XFACTOR=1
##YFACTOR=1
##FIRSTX=1
##LASTX=115
##FIRSTY=10
##MAXX=115
##MINX=1
##MAXY=9999
##MINY=10
##NPOINTS=60
##PEAK TABLE=(XY..XY)
1,10 2,30 12,10 13,10
14,10 15,170 16,10 26,80
27,1932 28,270 29,1982 30,50
37,10 38,20 39,841 40,130
41,2282 42,701 43,9999 44,340
45,10 50,10 51,40 52,20
53,190 54,80 55,1161 56,591
57,1241 58,50 59,10 63,10
64,10 65,20 66,10 67,50
68,10 69,250 70,1291 71,1351
72,70 73,10 77,10 78,10
79,10 80,10 81,10 82,10
83,20 84,2262 85,2853 86,180
87,10 91,10 93,10 98,10
99,10 113,10 114,160 115,20
##END=
