##TITLE=Benzoic acid, 4-nitro-
##JCAMP-DX=4.24
##DATA TYPE=MASS SPECTRUM
##ORIGIN=NIST Mass Spectrometry Data Center, 1998.
##OWNER=NIST Mass Spectrometry Data Center
Collection (C) 2014 copyright by the U.S. Secretary of Commerce
on behalf of the United States of America. All rights reserved.
##CAS REGISTRY NO=62-23-7
##$NIST MASS SPEC NO=290676
##MOLFORM=C7 H5 N O4
##MW=167
##$NIST SOURCE=MSDC
##XUNITS=M/Z
##YUNITS=RELATIVE INTENSITY
##XFACTOR=1
##YFACTOR=1
##FIRSTX=16
##LASTX=169
##FIRSTY=10
##MAXX=169
##MINX=16
##MAXY=9999
##MINY=10
##NPOINTS=98
##PEAK TABLE=(XY..XY)
16,10 25,10 26,50 27,190
29,60 30,1180 31,10 36,20
37,320 38,510 39,1950 40,80
41,40 42,30 43,30 44,50
45,620 46,240 47,10 48,20
49,250 50,3790 51,2450 52,240
53,1030 54,70 55,110 57,10
60,50 61,250 62,390 63,790
64,480 65,9999 66,650 67,50
68,10 69,30 71,10 72,30
73,410 74,2200 75,2780 76,2330
77,350 78,50 79,40 80,40
81,1330 82,80 83,10 85,10
86,20 87,30 88,30 89,50
90,50 91,80 92,710 93,710
94,60 95,10 101,20 102,50
103,780 104,970 105,100 106,40
107,20 108,40 109,2110 110,150
111,10 117,10 118,20 119,60
120,710 121,4000 122,330 123,30
130,10 133,10 134,10 135,10
136,10 137,2020 138,170 139,20
149,30 150,290 151,270 152,30
153,10 164,40 165,20 167,7019
168,590 169,80
##END=
