##TITLE=Phenol, 3-ethyl-
##JCAMP-DX=4.24
##DATA TYPE=MASS SPECTRUM
##ORIGIN=Japan AIST/NIMC Database- Spectrum MS-NW-8681
##OWNER=NIST Mass Spectrometry Data Center
Collection (C) 2014 copyright by the U.S. Secretary of Commerce
on behalf of the United States of America. All rights reserved.
##CAS REGISTRY NO=620-17-7
##$NIST MASS SPEC NO=229238
##MOLFORM=C8 H10 O
##MW=122
##$NIST SOURCE=MSDC
##XUNITS=M/Z
##YUNITS=RELATIVE INTENSITY
##XFACTOR=1
##YFACTOR=1
##FIRSTX=15
##LASTX=124
##FIRSTY=20
##MAXX=124
##MINX=15
##MAXY=9999
##MINY=10
##NPOINTS=68
##PEAK TABLE=(XY..XY)
15,20 26,30 27,299 28,60
29,50 31,10 37,40 38,139
39,729 40,90 41,149 42,20
43,60 44,10 45,80 46,70
49,20 50,169 51,439 52,169
53,319 54,20 55,189 59,109
60,159 61,60 62,99 63,259
64,80 65,369 66,139 67,50
68,20 69,10 73,10 74,50
75,50 76,30 77,1859 78,339
79,659 80,50 81,70 86,10
87,10 89,60 90,20 91,489
92,60 93,169 94,579 95,99
101,10 102,30 103,329 104,50
105,119 106,20 107,9999 108,779
109,40 118,10 119,40 120,70
121,519 122,4579 123,409 124,20
##END=
