##TITLE=Benzene, 1-ethenyl-4-methyl-
##JCAMP-DX=4.24
##DATA TYPE=MASS SPECTRUM
##ORIGIN=NIST Mass Spectrometry Data Center, 1990.
##OWNER=NIST Mass Spectrometry Data Center
Collection (C) 2014 copyright by the U.S. Secretary of Commerce
on behalf of the United States of America. All rights reserved.
##CAS REGISTRY NO=622-97-9
##$NIST MASS SPEC NO=118198
##MOLFORM=C9 H10
##MW=118
##$NIST SOURCE=MSDC
##XUNITS=M/Z
##YUNITS=RELATIVE INTENSITY
##XFACTOR=1
##YFACTOR=1
##FIRSTX=15
##LASTX=120
##FIRSTY=95
##MAXX=120
##MINX=15
##MAXY=9999
##MINY=35
##NPOINTS=52
##PEAK TABLE=(XY..XY)
15,95 26,224 27,716 28,123
37,187 38,442 39,2100 40,273
41,270 43,51 49,99 50,912
51,1575 52,440 53,214 57,703
59,210 60,45 61,283 62,738
63,1421 64,355 65,1386 66,164
73,76 74,324 75,304 76,325
77,857 78,571 79,95 84,38
85,105 86,169 87,175 88,116
89,925 90,38 91,3916 92,547
98,51 101,91 102,501 103,1175
104,102 113,73 115,3853 116,1302
117,9999 118,7731 119,691 120,35
##END=
