##TITLE=Pyrimidine, 4,6-dichloro-2-(methylthio)-
##JCAMP-DX=4.24
##DATA TYPE=MASS SPECTRUM
##ORIGIN=J.E. WILKINSON S-CUBED, SAN DIEGO, CA.
##OWNER=NIST Mass Spectrometry Data Center
Collection (C) 2014 copyright by the U.S. Secretary of Commerce
on behalf of the United States of America. All rights reserved.
##CAS REGISTRY NO=6299-25-8
##$NIST MASS SPEC NO=80610
##MOLFORM=C5 H4 Cl2 N2 S
##MW=194
##$NIST SOURCE=MSDC
##XUNITS=M/Z
##YUNITS=RELATIVE INTENSITY
##XFACTOR=1
##YFACTOR=1
##FIRSTX=40
##LASTX=200
##FIRSTY=91
##MAXX=200
##MINX=40
##MAXY=9999
##MINY=1
##NPOINTS=131
##PEAK TABLE=(XY..XY)
40,91 41,21 42,186 44,661
45,4325 46,3190 47,3375 48,284
49,716 50,305 51,2975 52,439
53,117 54,19 56,185 57,232
58,911 59,705 60,853 61,120
62,618 63,29 64,209 65,219
66,45 67,123 68,3 69,13
70,922 71,94 72,480 73,571
74,2476 75,124 76,883 77,736
78,123 79,719 80,16 81,222
82,589 83,891 84,98 85,408
86,2472 87,1495 88,1140 89,432
90,70 91,128 92,31 93,134
94,25 95,80 96,24 97,48
98,348 99,25 100,60 101,275
102,11 103,61 104,1 105,18
106,11 107,22 108,79 109,2052
110,103 111,115 112,28 113,6938
114,361 115,2327 116,76 117,28
118,399 119,15 120,141 121,123
122,34 123,498 124,205 125,142
126,11 127,16 130,14 131,18
132,455 133,18 134,138 135,3
136,54 138,20 143,1 144,890
145,40 146,296 147,172 148,5831
149,1358 150,3759 151,815 152,656
153,107 154,13 155,1 157,9
158,222 159,3049 160,263 161,1120
162,111 163,33 164,18 166,3
167,1 168,1 179,119 180,1
181,69 183,2 192,5 193,3795
194,9999 195,3363 196,6969 197,974
198,1326 199,64 200,16
##END=
