##TITLE=1,1'-Biphenyl, 4-methyl-
##JCAMP-DX=4.24
##DATA TYPE=MASS SPECTRUM
##ORIGIN=NIST Mass Spectrometry Data Center, 1990.
##OWNER=NIST Mass Spectrometry Data Center
Collection (C) 2014 copyright by the U.S. Secretary of Commerce
on behalf of the United States of America. All rights reserved.
##CAS REGISTRY NO=644-08-6
##$NIST MASS SPEC NO=113287
##MOLFORM=C13 H12
##MW=168
##$NIST SOURCE=MSDC
##XUNITS=M/Z
##YUNITS=RELATIVE INTENSITY
##XFACTOR=1
##YFACTOR=1
##FIRSTX=27
##LASTX=170
##FIRSTY=246
##MAXX=170
##MINX=27
##MAXY=9999
##MINY=62
##NPOINTS=60
##PEAK TABLE=(XY..XY)
27,246 28,132 38,136 39,647
40,80 50,499 51,822 52,196
58,124 61,94 62,428 63,1064
64,165 65,502 70,280 71,172
74,440 75,451 76,607 77,513
78,141 82,1024 83,919 84,531
86,248 87,375 88,193 89,745
90,249 91,828 98,143 99,101
101,125 102,363 103,92 111,62
113,213 115,1363 116,149 126,295
127,287 128,580 129,88 139,652
140,125 141,434 142,70 150,179
151,614 152,2700 153,2048 154,227
163,265 164,456 165,3043 166,1058
167,7281 168,9999 169,1330 170,84
##END=
