##TITLE=Benzene, 1-chloro-4-phenoxy-
##JCAMP-DX=4.24
##DATA TYPE=MASS SPECTRUM
##OWNER=NIST Mass Spectrometry Data Center
Collection (C) 2014 copyright by the U.S. Secretary of Commerce
on behalf of the United States of America. All rights reserved.
##CAS REGISTRY NO=7005-72-3
##$NIST MASS SPEC NO=9297
##MOLFORM=C12 H9 Cl O
##MW=204
##$NIST SOURCE=MSDC
##XUNITS=M/Z
##YUNITS=RELATIVE INTENSITY
##XFACTOR=1
##YFACTOR=1
##FIRSTX=26
##LASTX=208
##FIRSTY=10
##MAXX=208
##MINX=26
##MAXY=9999
##MINY=10
##NPOINTS=92
##PEAK TABLE=(XY..XY)
26,10 27,80 28,60 32,20
36,10 37,30 38,110 39,320
40,20 44,10 49,30 50,400
51,1161 52,60 53,20 55,30
57,20 61,40 62,80 63,290
64,110 65,200 66,40 68,20
69,80 70,490 71,20 72,10
73,160 74,180 75,561 76,160
77,2272 78,150 79,10 84,520
85,80 86,20 87,40 88,30
89,60 91,20 92,30 93,20
94,120 98,10 99,200 100,30
101,80 102,160 103,50 110,10
111,220 112,20 113,100 114,40
115,430 116,60 125,10 126,10
127,90 128,320 129,50 130,100
136,10 138,20 139,310 140,140
141,2933 142,370 143,20 149,60
150,10 151,30 152,10 162,10
167,30 168,490 169,741 170,160
171,10 175,200 176,460 177,120
178,150 179,20 202,50 204,9999
205,1431 206,3373 207,440 208,30
##END=
