##TITLE=3,4,4',5-Tetrachloro-1,1'-biphenyl
##JCAMP-DX=4.24
##DATA TYPE=MASS SPECTRUM
##ORIGIN=N. Todua, WGM, MMES
##OWNER=NIST Mass Spectrometry Data Center
Collection (C) 2014 copyright by the U.S. Secretary of Commerce
on behalf of the United States of America. All rights reserved.
##CAS REGISTRY NO=70362-50-4
##$NIST MASS SPEC NO=334724
##MOLFORM=C12 H6 Cl4
##MW=290
##$NIST SOURCE=MSDC
##XUNITS=M/Z
##YUNITS=RELATIVE INTENSITY
##XFACTOR=1
##YFACTOR=1
##FIRSTX=41
##LASTX=298
##FIRSTY=126
##MAXX=298
##MINX=41
##MAXY=9999
##MINY=63
##NPOINTS=119
##PEAK TABLE=(XY..XY)
41,126 44,126 45,189 47,126
49,126 50,263 51,189 55,63
56,126 58,126 60,126 62,263
63,189 64,126 65,63 67,63
72,126 73,263 74,516 75,516
76,126 77,126 78,126 79,126
80,126 84,189 85,189 86,263
87,189 92,579 93,389 94,126
96,126 97,263 98,516 99,263
100,263 101,126 102,63 103,63
107,126 108,189 109,389 110,1095
111,705 113,126 114,126 115,126
116,126 119,126 120,126 121,189
122,189 123,263 124,189 125,189
126,263 127,189 128,189 143,189
144,189 145,389 146,453 147,389
148,189 149,516 150,968 151,189
157,189 158,189 159,189 160,189
161,189 162,63 169,189 170,189
171,189 172,189 173,189 181,189
182,189 183,263 184,705 185,642
186,389 187,326 192,189 194,189
196,189 204,189 206,189 208,126
217,126 218,189 219,263 220,3736
221,642 222,2326 223,326 224,453
225,189 228,126 230,189 253,126
254,326 255,189 256,326 257,189
258,189 288,63 290,8515 291,1221
292,9999 293,1610 294,5294 295,705
296,1295 297,263 298,189
##END=
