##TITLE=1,1'-Biphenyl, 2',3,4,5,5'-Pentachloro-
##JCAMP-DX=4.24
##DATA TYPE=MASS SPECTRUM
##ORIGIN=Organic Synthesis Lab, MSU, Moscow.TRC 1266
##OWNER=NIST Mass Spectrometry Data Center
Collection (C) 2014 copyright by the U.S. Secretary of Commerce
on behalf of the United States of America. All rights reserved.
##CAS REGISTRY NO=70424-70-3
##$NIST MASS SPEC NO=326642
##MOLFORM=C12 H5 Cl5
##MW=324
##$NIST SOURCE=MSDC
##XUNITS=M/Z
##YUNITS=RELATIVE INTENSITY
##XFACTOR=1
##YFACTOR=1
##FIRSTX=41
##LASTX=334
##FIRSTY=19
##MAXX=334
##MINX=41
##MAXY=9999
##MINY=9
##NPOINTS=135
##PEAK TABLE=(XY..XY)
41,19 42,10 44,112 47,26
49,35 50,62 51,38 55,20
56,9 57,13 60,33 61,92
62,88 63,27 67,11 71,17
72,38 73,154 74,238 75,86
78,37 79,33 83,21 84,101
85,126 86,112 87,45 92,183
93,52 96,57 97,119 98,187
99,134 100,12 107,42 108,114
109,429 110,317 111,85 112,11
114,27 115,19 116,10 119,34
120,49 121,82 122,127 123,101
124,15 127,579 128,552 129,187
131,12 132,69 133,85 134,48
135,53 136,20 143,28 144,154
145,196 146,159 147,136 148,130
149,151 150,28 156,18 157,33
158,48 159,37 160,18 161,12
162,110 163,187 164,133 165,46
167,11 168,14 169,44 170,48
171,42 172,35 180,13 181,23
182,75 183,157 184,726 185,140
186,224 187,24 193,24 194,32
195,15 196,28 204,25 205,11
206,294 207,14 217,24 218,315
219,331 220,274 221,207 222,47
223,36 228,19 230,23 232,20
252,17 254,2638 255,393 256,2506
257,390 258,861 259,102 260,87
261,10 288,96 289,79 290,141
291,102 292,73 293,41 294,21
324,6093 325,816 326,9999 327,1259
328,6809 329,859 330,2062 331,302
332,355 333,49 334,36
##END=
