##TITLE=1-Pentene, 3-methyl-
##JCAMP-DX=4.24
##DATA TYPE=MASS SPECTRUM
##ORIGIN=NIST Mass Spectrometry Data Center, 1990.
##OWNER=NIST Mass Spectrometry Data Center
Collection (C) 2014 copyright by the U.S. Secretary of Commerce
on behalf of the United States of America. All rights reserved.
##CAS REGISTRY NO=760-20-3
##$NIST MASS SPEC NO=114404
##MOLFORM=C6 H12
##MW=84
##$NIST SOURCE=MSDC
##XUNITS=M/Z
##YUNITS=RELATIVE INTENSITY
##XFACTOR=1
##YFACTOR=1
##FIRSTX=15
##LASTX=85
##FIRSTY=445
##MAXX=85
##MINX=15
##MAXY=9999
##MINY=122
##NPOINTS=28
##PEAK TABLE=(XY..XY)
15,445 26,717 27,3945 28,384
29,2856 37,142 38,471 39,4292
40,788 41,7522 42,1771 43,579
50,610 51,865 52,337 53,1781
54,1121 55,9999 56,4350 57,285
63,136 65,219 66,122 67,649
69,8851 70,496 84,3254 85,212
##END=
