##TITLE=1,2-Cyclopentanedione, 3-methyl-
##JCAMP-DX=4.24
##DATA TYPE=MASS SPECTRUM
##ORIGIN=RADIAN CORP
##OWNER=NIST Mass Spectrometry Data Center
Collection (C) 2014 copyright by the U.S. Secretary of Commerce
on behalf of the United States of America. All rights reserved.
##CAS REGISTRY NO=765-70-8
##$NIST MASS SPEC NO=69629
##MOLFORM=C6 H8 O2
##MW=112
##$NIST SOURCE=MSDC
##XUNITS=M/Z
##YUNITS=RELATIVE INTENSITY
##XFACTOR=1
##YFACTOR=1
##FIRSTX=14
##LASTX=114
##FIRSTY=20
##MAXX=114
##MINX=14
##MAXY=9999
##MINY=20
##NPOINTS=56
##PEAK TABLE=(XY..XY)
14,20 15,110 16,30 18,30
25,70 26,510 27,1690 29,1070
30,50 31,170 36,30 37,210
38,390 39,2060 40,460 41,3620
42,1280 43,2570 44,450 45,100
50,460 52,350 53,1020 54,530
55,4900 56,2730 57,460 58,100
61,50 62,50 63,90 64,20
65,430 66,680 67,210 68,70
69,4720 70,480 71,270 80,70
81,110 82,250 83,2570 84,310
85,70 93,30 94,20 95,80
97,690 98,20 108,60 110,120
111,460 112,9999 113,690 114,50
##END=
