##TITLE=3-Pentanol, 3-methyl-
##JCAMP-DX=4.24
##DATA TYPE=MASS SPECTRUM
##ORIGIN=NIST Mass Spectrometry Data Center
##OWNER=NIST Mass Spectrometry Data Center
Collection (C) 2014 copyright by the U.S. Secretary of Commerce
on behalf of the United States of America. All rights reserved.
##CAS REGISTRY NO=77-74-7
##$NIST MASS SPEC NO=333923
##MOLFORM=C6 H14 O
##MW=102
##$NIST SOURCE=MSDC
##XUNITS=M/Z
##YUNITS=RELATIVE INTENSITY
##XFACTOR=1
##YFACTOR=1
##FIRSTX=14
##LASTX=89
##FIRSTY=10
##MAXX=89
##MINX=14
##MAXY=9999
##MINY=10
##NPOINTS=48
##PEAK TABLE=(XY..XY)
14,10 15,80 19,20 26,100
27,781 28,140 29,851 30,30
31,400 37,10 38,40 39,520
40,60 41,871 42,210 43,2632
44,170 45,2542 46,60 47,10
49,10 50,70 51,100 52,40
53,300 55,5515 56,380 57,731
58,110 59,90 62,10 63,20
65,30 66,10 67,50 69,821
70,50 71,120 73,9999 74,611
75,40 77,10 83,10 84,80
85,420 87,1752 88,100 89,10
##END=
