##TITLE=2-Propenoic acid
##JCAMP-DX=4.24
##DATA TYPE=MASS SPECTRUM
##ORIGIN=NIST Mass Spectrometry Data Center, 1998.
##OWNER=NIST Mass Spectrometry Data Center
Collection (C) 2014 copyright by the U.S. Secretary of Commerce
on behalf of the United States of America. All rights reserved.
##CAS REGISTRY NO=79-10-7
##$NIST MASS SPEC NO=291362
##MOLFORM=C3 H4 O2
##MW=72
##$NIST SOURCE=MSDC
##XUNITS=M/Z
##YUNITS=RELATIVE INTENSITY
##XFACTOR=1
##YFACTOR=1
##FIRSTX=13
##LASTX=74
##FIRSTY=10
##MAXX=74
##MINX=13
##MAXY=9999
##MINY=10
##NPOINTS=34
##PEAK TABLE=(XY..XY)
13,10 14,50 15,10 17,40
24,100 25,530 26,2870 27,5549
28,840 29,470 30,10 31,10
36,20 37,80 38,20 39,10
40,40 41,160 42,170 43,830
44,1940 45,3880 46,260 47,10
52,160 53,780 54,270 55,8789
56,290 57,10 71,520 72,9999
73,360 74,40
##END=
