##TITLE=2-Nonanone
##JCAMP-DX=4.24
##DATA TYPE=MASS SPECTRUM
##ORIGIN=NIST Mass Spectrometry Data Center, 1990.
##OWNER=NIST Mass Spectrometry Data Center
Collection (C) 2014 copyright by the U.S. Secretary of Commerce
on behalf of the United States of America. All rights reserved.
##CAS REGISTRY NO=821-55-6
##$NIST MASS SPEC NO=114362
##MOLFORM=C9 H18 O
##MW=142
##$NIST SOURCE=MSDC
##XUNITS=M/Z
##YUNITS=RELATIVE INTENSITY
##XFACTOR=1
##YFACTOR=1
##FIRSTX=15
##LASTX=143
##FIRSTY=507
##MAXX=143
##MINX=15
##MAXY=9999
##MINY=63
##NPOINTS=42
##PEAK TABLE=(XY..XY)
15,507 26,158 27,1523 28,115
29,1466 31,63 39,1256 40,386
41,2921 42,1145 43,9999 44,293
45,128 51,108 53,281 54,138
55,961 56,367 57,2239 58,9117
59,2132 60,95 67,269 68,108
69,233 70,95 71,2233 72,163
81,84 82,329 83,105 84,350
85,420 86,120 95,123 99,229
100,207 109,88 113,158 127,319
142,715 143,80
##END=
