##TITLE=Benzenamine, 4-nitro-N-phenyl-
##JCAMP-DX=4.24
##DATA TYPE=MASS SPECTRUM
##ORIGIN=MASS SPECTROMETRY CENTER, UNIV. OF UTAH ALDRICH 10357-8
##OWNER=NIST Mass Spectrometry Data Center
Collection (C) 2014 copyright by the U.S. Secretary of Commerce
on behalf of the United States of America. All rights reserved.
##CAS REGISTRY NO=836-30-6
##$NIST MASS SPEC NO=59490
##MOLFORM=C12 H10 N2 O2
##MW=214
##$NIST SOURCE=MSDC
##XUNITS=M/Z
##YUNITS=RELATIVE INTENSITY
##XFACTOR=1
##YFACTOR=1
##FIRSTX=27
##LASTX=216
##FIRSTY=137
##MAXX=216
##MINX=27
##MAXY=9999
##MINY=8
##NPOINTS=63
##PEAK TABLE=(XY..XY)
27,137 28,204 30,127 37,9
38,193 39,630 40,21 41,32
50,538 51,1023 52,293 53,18
58,10 62,153 63,608 64,397
65,751 66,81 70,349 71,300
74,180 75,193 76,278 77,1285
78,237 83,250 84,1328 88,8
89,204 90,295 91,161 99,21
101,8 102,18 103,28 113,19
114,104 115,444 116,108 117,106
127,93 128,368 129,243 130,99
138,17 139,556 140,387 141,310
153,29 154,67 155,18 165,67
166,424 167,8581 168,3200 169,407
184,1474 185,230 198,89 213,122
214,9999 215,1486 216,129
##END=
