##TITLE=Phenol, 2-nitro-
##JCAMP-DX=4.24
##DATA TYPE=MASS SPECTRUM
##ORIGIN=NIST Mass Spectrometry Data Center, 1998.
##OWNER=NIST Mass Spectrometry Data Center
Collection (C) 2014 copyright by the U.S. Secretary of Commerce
on behalf of the United States of America. All rights reserved.
##CAS REGISTRY NO=88-75-5
##$NIST MASS SPEC NO=290728
##MOLFORM=C6 H5 N O3
##MW=139
##$NIST SOURCE=MSDC
##XUNITS=M/Z
##YUNITS=RELATIVE INTENSITY
##XFACTOR=1
##YFACTOR=1
##FIRSTX=17
##LASTX=141
##FIRSTY=10
##MAXX=141
##MINX=17
##MAXY=9999
##MINY=10
##NPOINTS=67
##PEAK TABLE=(XY..XY)
17,10 25,10 26,110 27,210
29,90 30,520 31,20 32,10
36,20 37,350 38,910 39,2630
40,130 41,30 42,50 43,40
44,10 45,20 46,140 48,20
49,140 50,590 51,980 52,490
53,1600 54,130 55,140 60,50
61,360 62,860 63,3270 64,2110
65,3920 66,490 67,120 68,40
69,20 73,60 74,230 75,220
76,120 77,100 78,560 79,90
80,90 81,2880 82,160 83,10
90,10 91,50 92,910 93,1000
94,590 95,70 105,10 106,420
107,30 108,10 109,2520 110,170
111,20 122,670 123,160 124,10
139,9999 140,730 141,80
##END=
