##TITLE=Phenanthrene, 9-methyl-
##JCAMP-DX=4.24
##DATA TYPE=MASS SPECTRUM
##ORIGIN=G.A.M.S., PARIS, FRANCE.
##OWNER=NIST Mass Spectrometry Data Center
Collection (C) 2014 copyright by the U.S. Secretary of Commerce
on behalf of the United States of America. All rights reserved.
##CAS REGISTRY NO=883-20-5
##$NIST MASS SPEC NO=8304
##MOLFORM=C15 H12
##MW=192
##$NIST SOURCE=MSDC
##XUNITS=M/Z
##YUNITS=RELATIVE INTENSITY
##XFACTOR=1
##YFACTOR=1
##FIRSTX=27
##LASTX=194
##FIRSTY=10
##MAXX=194
##MINX=27
##MAXY=9999
##MINY=1
##NPOINTS=103
##PEAK TABLE=(XY..XY)
27,10 29,10 38,8 39,70
41,5 43,9 50,50 51,70
52,10 53,3 55,4 56,4
57,10 61,7 62,50 63,190
64,20 65,20 67,1 68,10
69,20 70,40 71,8 73,4
74,80 75,120 76,60 77,30
78,4 80,3 81,100 82,340
83,340 85,8 86,50 87,90
88,170 89,60 90,3 91,7
93,30 94,340 95,630 96,1130
97,20 98,40 99,30 100,10
101,20 102,10 103,1 109,4
110,20 111,20 112,8 113,30
114,10 115,70 116,7 122,10
123,10 124,4 125,7 126,40
127,10 128,10 129,7 134,6
135,3 136,3 137,20 138,20
139,120 140,20 141,5 149,20
150,100 151,90 152,120 153,10
161,20 162,40 163,260 164,140
165,870 166,10 167,8 174,40
175,60 176,280 177,70 178,50
179,8 185,7 186,20 187,260
188,170 189,1620 190,580 191,3950
192,9999 193,1530 194,120
##END=
