##TITLE=Fluoranthene, 3-nitro-
##JCAMP-DX=4.24
##DATA TYPE=MASS SPECTRUM
##ORIGIN=J.N.PITTS, STATEWIDE AIR POLLUT. RES. CENT., UNIV. CALIF., USA
##OWNER=NIST Mass Spectrometry Data Center
Collection (C) 2014 copyright by the U.S. Secretary of Commerce
on behalf of the United States of America. All rights reserved.
##CAS REGISTRY NO=892-21-7
##$NIST MASS SPEC NO=105609
##MOLFORM=C16 H9 N O2
##MW=247
##$NIST SOURCE=MSDC
##XUNITS=M/Z
##YUNITS=RELATIVE INTENSITY
##XFACTOR=1
##YFACTOR=1
##FIRSTX=50
##LASTX=249
##FIRSTY=200
##MAXX=249
##MINX=50
##MAXY=9999
##MINY=100
##NPOINTS=70
##PEAK TABLE=(XY..XY)
50,200 51,200 61,100 62,200
63,300 74,600 75,400 76,100
77,100 82,100 85,100 86,300
87,1100 89,100 94,300 98,500
99,1000 100,3000 109,100 110,200
111,200 113,100 122,200 125,100
126,100 134,100 135,100 137,100
139,100 146,100 147,100 148,100
149,300 150,600 151,300 161,100
162,100 163,300 164,200 165,100
173,200 174,900 175,600 176,100
177,100 185,100 186,200 187,800
188,800 189,4500 190,1400 191,1800
192,300 197,200 198,1000 199,1600
200,7100 201,7000 202,1300 203,200
205,100 214,100 215,100 217,3100
218,600 219,200 231,100 247,9999
248,1900 249,200
##END=
