##TITLE=4,4'-Dichlorobenzophenone
##JCAMP-DX=4.24
##DATA TYPE=MASS SPECTRUM
##ORIGIN=NIST Mass Spectrometry Data Center
##OWNER=NIST Mass Spectrometry Data Center
Collection (C) 2014 copyright by the U.S. Secretary of Commerce
on behalf of the United States of America. All rights reserved.
##CAS REGISTRY NO=90-98-2
##$NIST MASS SPEC NO=341065
##MOLFORM=C13 H8 Cl2 O
##MW=250
##$NIST SOURCE=MSDC
##XUNITS=M/Z
##YUNITS=RELATIVE INTENSITY
##XFACTOR=1
##YFACTOR=1
##FIRSTX=27
##LASTX=255
##FIRSTY=10
##MAXX=255
##MINX=27
##MAXY=9999
##MINY=10
##NPOINTS=82
##PEAK TABLE=(XY..XY)
27,10 37,20 38,40 39,20
49,30 50,540 51,250 52,10
53,20 60,10 61,70 62,50
63,70 72,10 73,100 74,510
75,2172 76,561 77,80 80,10
84,60 85,250 86,70 87,110
88,10 93,180 94,60 97,10
98,50 99,50 100,10 101,30
104,120 105,10 108,10 109,20
110,130 111,4104 112,520 113,1321
114,90 122,10 123,20 124,10
125,40 126,40 136,10 137,10
139,9999 140,841 141,3513 142,260
143,10 149,30 150,170 151,180
152,370 153,40 160,10 161,10
162,10 163,20 180,70 181,10
185,10 186,120 187,20 188,40
214,20 215,1061 216,160 217,350
218,50 222,90 223,10 224,50
250,3693 251,540 252,2392 253,340
254,410 255,50
##END=
