##TITLE=[1,1'-Biphenyl]-4,4'-diamine, 3,3'-dichloro-
##JCAMP-DX=4.24
##DATA TYPE=MASS SPECTRUM
##ORIGIN=NIST Mass Spectrometry Data Center, 1990.
##OWNER=NIST Mass Spectrometry Data Center
Collection (C) 2014 copyright by the U.S. Secretary of Commerce
on behalf of the United States of America. All rights reserved.
##CAS REGISTRY NO=91-94-1
##$NIST MASS SPEC NO=114972
##MOLFORM=C12 H10 Cl2 N2
##MW=252
##$NIST SOURCE=MSDC
##XUNITS=M/Z
##YUNITS=RELATIVE INTENSITY
##XFACTOR=1
##YFACTOR=1
##FIRSTX=39
##LASTX=257
##FIRSTY=116
##MAXX=257
##MINX=39
##MAXY=9999
##MINY=55
##NPOINTS=83
##PEAK TABLE=(XY..XY)
39,116 50,137 51,212 52,414
53,77 61,80 62,247 63,487
64,193 65,166 66,76 73,102
74,223 75,433 76,76 77,858
81,55 82,95 86,103 87,152
88,159 89,256 90,349 91,1064
94,139 95,133 97,74 98,114
99,255 100,225 101,319 102,238
103,87 108,467 109,206 110,64
112,86 113,118 114,110 115,87
116,65 124,77 125,298 126,1369
127,1242 128,426 129,124 130,118
138,108 139,86 140,107 151,267
152,311 153,480 154,1311 155,269
163,78 164,277 165,130 166,97
175,67 179,315 180,149 181,980
182,928 183,131 188,256 189,125
190,322 200,87 201,83 215,576
216,508 217,420 218,193 224,237
226,171 252,9999 253,1773 254,6393
255,951 256,1081 257,134
##END=
