##TITLE=Phenol, 3,4-dimethyl-
##JCAMP-DX=4.24
##DATA TYPE=MASS SPECTRUM
##ORIGIN=Japan AIST/NIMC Database- Spectrum MS-NW-1687
##OWNER=NIST Mass Spectrometry Data Center
Collection (C) 2014 copyright by the U.S. Secretary of Commerce
on behalf of the United States of America. All rights reserved.
##CAS REGISTRY NO=95-65-8
##$NIST MASS SPEC NO=229054
##MOLFORM=C8 H10 O
##MW=122
##$NIST SOURCE=MSDC
##XUNITS=M/Z
##YUNITS=RELATIVE INTENSITY
##XFACTOR=1
##YFACTOR=1
##FIRSTX=15
##LASTX=124
##FIRSTY=40
##MAXX=124
##MINX=15
##MAXY=9999
##MINY=10
##NPOINTS=75
##PEAK TABLE=(XY..XY)
15,40 18,10 26,80 27,629
28,80 29,20 31,20 37,60
38,199 39,1039 40,139 41,389
42,40 43,219 44,20 45,99
46,80 47,20 49,40 50,369
51,839 52,339 53,539 54,50
55,249 56,10 59,99 60,259
61,169 62,129 63,319 64,80
65,519 66,139 67,109 68,30
69,40 73,20 74,80 75,70
76,40 77,2029 78,459 79,809
80,80 81,109 82,30 85,10
86,20 87,20 89,70 90,40
91,1139 92,139 93,279 94,159
95,60 96,20 98,10 101,20
102,40 103,259 104,149 105,199
106,30 107,9999 108,789 109,50
118,10 119,90 120,189 121,4639
122,9979 123,869 124,90
##END=
