##TITLE=Benzenamine, 4-chloro-2-methyl-
##JCAMP-DX=4.24
##DATA TYPE=MASS SPECTRUM
##ORIGIN=Japan AIST/NIMC Database- Spectrum MS-NW-4808
##OWNER=NIST Mass Spectrometry Data Center
Collection (C) 2014 copyright by the U.S. Secretary of Commerce
on behalf of the United States of America. All rights reserved.
##CAS REGISTRY NO=95-69-2
##$NIST MASS SPEC NO=230019
##MOLFORM=C7 H8 Cl N
##MW=141
##$NIST SOURCE=MSDC
##XUNITS=M/Z
##YUNITS=RELATIVE INTENSITY
##XFACTOR=1
##YFACTOR=1
##FIRSTX=14
##LASTX=145
##FIRSTY=10
##MAXX=145
##MINX=14
##MAXY=9999
##MINY=10
##NPOINTS=92
##PEAK TABLE=(XY..XY)
14,10 15,30 26,60 27,229
28,259 29,60 30,329 35,20
36,70 37,109 38,189 39,409
40,60 41,139 42,169 43,20
44,30 45,10 47,10 48,10
49,70 50,389 51,869 52,759
53,319 54,189 55,20 57,20
60,30 61,90 62,169 63,359
64,99 65,189 66,109 67,30
68,10 69,10 70,229 71,90
72,30 73,179 74,159 75,219
76,159 77,2159 78,689 79,899
80,169 81,40 84,20 85,40
86,40 87,60 88,40 89,749
90,109 91,60 92,10 93,10
97,20 98,10 99,99 100,50
101,40 102,90 103,30 104,539
105,289 106,8409 107,699 108,30
111,50 112,80 113,249 114,99
115,80 116,30 121,10 123,50
124,99 125,129 126,50 127,40
138,70 139,30 140,3289 141,9999
142,1759 143,3189 144,279 145,10
##END=
