##TITLE=9-Nitrophenanthrene
##JCAMP-DX=4.24
##DATA TYPE=MASS SPECTRUM
##ORIGIN=J.E. WILKINSON S-CUBED, SAN DIEGO, CA.
##OWNER=NIST Mass Spectrometry Data Center
Collection (C) 2014 copyright by the U.S. Secretary of Commerce
on behalf of the United States of America. All rights reserved.
##CAS REGISTRY NO=954-46-1
##$NIST MASS SPEC NO=80528
##MOLFORM=C14 H9 N O2
##MW=223
##$NIST SOURCE=MSDC
##XUNITS=M/Z
##YUNITS=RELATIVE INTENSITY
##XFACTOR=1
##YFACTOR=1
##FIRSTX=40
##LASTX=224
##FIRSTY=188
##MAXX=224
##MINX=40
##MAXY=9999
##MINY=3
##NPOINTS=71
##PEAK TABLE=(XY..XY)
40,188 41,5 46,55 50,389
51,569 52,23 61,15 62,384
63,928 64,13 65,75 70,10
73,8 74,702 75,1096 76,168
77,100 81,3 82,18 83,38
85,8 86,201 87,577 88,2011
89,155 91,316 92,223 97,3
98,238 99,150 100,20 101,8
102,5 110,18 111,53 113,8
115,50 122,13 123,5 124,5
125,10 126,120 127,20 137,8
139,155 140,33 149,63 150,1765
151,2392 152,278 153,23 154,8
155,8 163,439 164,346 165,9999
166,1402 167,1835 168,384 174,374
175,597 176,7672 177,4849 178,913
179,253 180,10 193,108 194,3
207,10 223,5967 224,444
##END=
