##TITLE=Pentane, 3-methyl-
##JCAMP-DX=4.24
##DATA TYPE=MASS SPECTRUM
##ORIGIN=Japan AIST/NIMC Database- Spectrum MS-NW-1215
##OWNER=NIST Mass Spectrometry Data Center
Collection (C) 2014 copyright by the U.S. Secretary of Commerce
on behalf of the United States of America. All rights reserved.
##CAS REGISTRY NO=96-14-0
##$NIST MASS SPEC NO=227827
##MOLFORM=C6 H14
##MW=86
##$NIST SOURCE=MSDC
##XUNITS=M/Z
##YUNITS=RELATIVE INTENSITY
##XFACTOR=1
##YFACTOR=1
##FIRSTX=15
##LASTX=87
##FIRSTY=70
##MAXX=87
##MINX=15
##MAXY=9999
##MINY=10
##NPOINTS=33
##PEAK TABLE=(XY..XY)
15,70 26,99 27,1329 28,219
29,3909 30,90 37,20 38,50
39,919 40,119 41,5339 42,359
43,2539 44,80 50,60 51,80
52,30 53,179 54,50 55,669
56,7669 57,9999 58,449 63,10
65,10 67,20 69,60 70,159
71,569 72,30 85,70 86,299
87,20
##END=
