##TITLE=Benzoic acid, 4-chloro-3-nitro-
##JCAMP-DX=4.24
##DATA TYPE=MASS SPECTRUM
##ORIGIN=Japan AIST/NIMC Database- Spectrum MS-NW-1616
##OWNER=NIST Mass Spectrometry Data Center
Collection (C) 2014 copyright by the U.S. Secretary of Commerce
on behalf of the United States of America. All rights reserved.
##CAS REGISTRY NO=96-99-1
##$NIST MASS SPEC NO=228381
##MOLFORM=C7 H4 Cl N O4
##MW=201
##$NIST SOURCE=MSDC
##XUNITS=M/Z
##YUNITS=RELATIVE INTENSITY
##XFACTOR=1
##YFACTOR=1
##FIRSTX=15
##LASTX=205
##FIRSTY=10
##MAXX=205
##MINX=15
##MAXY=9999
##MINY=10
##NPOINTS=142
##PEAK TABLE=(XY..XY)
15,10 16,30 17,69 18,269
25,30 26,80 27,139 28,199
29,139 30,6019 31,30 32,20
35,40 36,149 37,639 38,509
39,609 40,30 41,50 42,20
43,50 44,239 45,749 46,139
47,60 48,50 49,339 50,1649
51,1159 52,139 53,509 54,40
55,139 56,20 57,60 60,109
61,409 62,469 63,1729 64,309
65,80 66,70 67,40 68,20
69,60 70,20 71,40 72,139
73,2409 74,2959 75,4289 76,469
77,80 78,30 79,109 80,40
81,20 82,10 83,30 84,649
85,369 86,249 87,389 88,80
89,129 90,129 91,279 92,209
93,30 95,20 96,20 97,90
98,149 99,8679 100,519 101,2799
102,219 103,169 104,20 107,199
108,169 109,919 110,1379 111,549
112,449 113,99 114,10 115,2819
116,159 117,919 118,60 119,70
120,50 121,30 122,10 123,10
124,10 125,70 126,429 127,309
128,159 129,99 130,10 136,10
137,269 138,859 139,419 140,289
141,99 142,10 143,869 144,60
145,299 146,20 147,10 149,10
153,70 154,149 155,1489 156,399
157,539 158,119 159,20 167,20
168,10 170,20 171,3429 172,289
173,1149 174,90 175,10 184,539
185,369 186,219 187,129 190,10
197,20 201,9999 202,819 203,3359
204,279 205,40
##END=
