##TITLE=m-Nitroaniline
##JCAMP-DX=4.24
##DATA TYPE=MASS SPECTRUM
##ORIGIN=D.HENNEBERG, MAX-PLANCK INSTITUTE, MULHEIM, WEST GERMANY
##OWNER=NIST Mass Spectrometry Data Center
Collection (C) 2014 copyright by the U.S. Secretary of Commerce
on behalf of the United States of America. All rights reserved.
##CAS REGISTRY NO=99-09-2
##$NIST MASS SPEC NO=63856
##MOLFORM=C6 H6 N2 O2
##MW=138
##$NIST SOURCE=MSDC
##XUNITS=M/Z
##YUNITS=RELATIVE INTENSITY
##XFACTOR=1
##YFACTOR=1
##FIRSTX=26
##LASTX=141
##FIRSTY=123
##MAXX=141
##MINX=26
##MAXY=9999
##MINY=3
##NPOINTS=81
##PEAK TABLE=(XY..XY)
26,123 27,282 28,775 29,50
30,323 31,11 32,3 33,4
36,21 37,340 38,883 39,3202
40,327 41,855 42,303 43,11
44,48 45,17 46,172 47,11
48,9 49,63 50,343 51,388
52,1102 53,511 54,283 55,27
56,3 60,29 61,243 62,514
63,1268 64,1003 65,9999 66,1269
67,85 68,24 69,11 73,35
74,155 75,131 76,72 77,29
78,93 79,143 80,1268 81,82
82,5 83,6 84,16 85,18
86,13 87,28 88,39 89,65
90,171 91,549 92,9517 93,737
94,30 95,13 96,17 104,3
105,35 106,19 107,19 108,654
109,64 110,90 111,5 120,6
121,15 122,72 123,7 136,3
137,66 138,8995 139,698 140,62
141,3
##END=
