##TITLE=Benzene, 1,2-dichloro-4-nitro-
##JCAMP-DX=4.24
##DATA TYPE=MASS SPECTRUM
##ORIGIN=NIST Mass Spectrometry Data Center, 1998.
##OWNER=NIST Mass Spectrometry Data Center
Collection (C) 2014 copyright by the U.S. Secretary of Commerce
on behalf of the United States of America. All rights reserved.
##CAS REGISTRY NO=99-54-7
##$NIST MASS SPEC NO=290689
##MOLFORM=C6 H3 Cl2 N O2
##MW=191
##$NIST SOURCE=MSDC
##XUNITS=M/Z
##YUNITS=RELATIVE INTENSITY
##XFACTOR=1
##YFACTOR=1
##FIRSTX=16
##LASTX=196
##FIRSTY=10
##MAXX=196
##MINX=16
##MAXY=9999
##MINY=10
##NPOINTS=111
##PEAK TABLE=(XY..XY)
16,10 24,10 25,20 26,30
27,10 30,1820 31,10 35,120
36,110 37,610 38,350 39,80
44,10 46,360 47,160 48,100
49,580 50,1350 51,290 52,30
53,20 54,60 59,20 60,290
61,720 62,610 63,720 64,80
65,10 66,10 71,90 72,450
73,1950 74,6409 75,4940 76,350
77,20 82,20 83,230 84,1750
85,1050 86,670 87,410 88,130
89,30 90,20 91,10 94,50
95,60 96,80 97,340 98,160
99,120 100,50 101,10 104,10
106,20 107,330 108,510 109,9999
110,2170 111,3310 112,650 113,30
118,40 119,250 120,40 121,160
122,20 123,30 124,160 125,20
126,160 127,10 128,30 131,10
133,5949 134,340 135,3850 136,210
137,630 138,30 142,10 143,10
144,170 145,9299 146,730 147,5969
148,420 149,980 150,60 156,10
159,10 161,3940 162,270 163,2560
164,170 165,410 166,30 171,10
175,200 176,10 177,120 178,10
179,20 191,7379 192,530 193,4780
194,340 195,790 196,50
##END=
